 vasp.5.3.3 18Dez12 (build Sep  7 2015 22:32:56) complex

 executed on             LinuxIFC date 2022.12.08  15:55:16

 INCAR:
 POTCAR:    PAW_PBE Fe 06Sep2000
 POTCAR:    PAW_PBE Fe 06Sep2000
   VRHFIN =Fe:  d7 s1

   TITEL  = PAW_PBE Fe 06Sep2000
   POMASS =   55.847; ZVAL   =    8.000    mass and valenz
   ENMAX  =  267.882; ENMIN  =  200.911 eV

  PAW_PBE Fe 06Sep2000                  :

 POSCAR: header
  positions in cartesian coordinates
 exchange correlation table for  LEXCH =        8
   RHO(1)=    0.500       N(1)  =     2000
   RHO(2)=  100.500       N(2)  =     4000

 ion  position               nearest neighbor table
   1  0.000  0.000  0.000-   5 2.44   6 2.44   7 2.44   8 2.44   2 2.82   3 2.82   3 2.82   2 2.82
                             9 2.82
   2  0.500  0.000  0.000-   5 2.44   6 2.44   7 2.44   8 2.44   1 2.82   4 2.82   4 2.82   1 2.82
                            10 2.82
   3  0.000  0.500  0.000-   5 2.44   6 2.44   7 2.44   8 2.44   1 2.82   4 2.82   1 2.82   4 2.82
                            11 2.82
   4  0.500  0.500  0.000-   5 2.44   6 2.44   7 2.44   8 2.44   2 2.82   3 2.82   2 2.82   3 2.82
                            12 2.82
   5  0.250  0.250  0.094-   1 2.44   2 2.44   3 2.44   4 2.44   9 2.44  10 2.44  11 2.44  12 2.44
                             6 2.82   7 2.82   7 2.82   6 2.82
   6  0.750  0.250  0.094-   1 2.44   2 2.44   3 2.44   4 2.44   9 2.44  10 2.44  11 2.44  12 2.44
                             5 2.82   8 2.82   8 2.82   5 2.82
   7  0.250  0.750  0.094-   1 2.44   2 2.44   3 2.44   4 2.44   9 2.44  10 2.44  11 2.44  12 2.44
                             5 2.82   8 2.82   5 2.82   8 2.82
   8  0.750  0.750  0.094-   1 2.44   2 2.44   3 2.44   4 2.44   9 2.44  10 2.44  11 2.44  12 2.44
                             6 2.82   7 2.82   6 2.82   7 2.82
   9  0.000  0.000  0.188-   5 2.44   6 2.44   7 2.44   8 2.44  10 2.82  11 2.82  11 2.82  10 2.82
                             1 2.82
  10  0.500  0.000  0.188-   5 2.44   6 2.44   7 2.44   8 2.44   9 2.82  12 2.82  12 2.82   9 2.82
                             2 2.82
  11  0.000  0.500  0.188-   5 2.44   6 2.44   7 2.44   8 2.44   9 2.82  12 2.82   9 2.82  12 2.82
                             3 2.82
  12  0.500  0.500  0.188-   5 2.44   6 2.44   7 2.44   8 2.44  10 2.82  11 2.82  10 2.82  11 2.82
                             4 2.82

  LATTYP: Found a simple tetragonal cell.
 ALAT       =     5.6400000000
 C/A-ratio  =     2.6595744681

  Lattice vectors:

 A1 = (   5.6400000000,   0.0000000000,   0.0000000000)
 A2 = (   0.0000000000,   5.6400000000,   0.0000000000)
 A3 = (   0.0000000000,   0.0000000000,  15.0000000000)

Analysis of symmetry for initial positions (statically):
 Subroutine PRICEL returns following result:

[...]

   4 primitive cells build up your supercell.

 Routine SETGRP: Setting up the symmetry group for a
 simple tetragonal supercell.

 Subroutine GETGRP returns: Found 16 space group operations
 (whereof  8 operations were pure point group operations)
 out of a pool of 16 trial point group operations.

The static configuration has the point symmetry C_4v.
 The point group associated with its full space group is D_4h.

Analysis of symmetry for dynamics (positions and initial velocities):
 Subroutine PRICEL returns following result:

[...]

The dynamic configuration has the point symmetry C_4v.
 The point group associated with its full space group is D_4h.

Analysis of constrained symmetry for selective dynamics:
 Subroutine PRICEL returns following result:

  LATTYP: Found a simple tetragonal cell.
 ALAT       =     2.8200000000
 C/A-ratio  =     5.3191489362

  Lattice vectors:

 A1 = (   2.8200000000,   0.0000000000,   0.0000000000)
 A2 = (   0.0000000000,   2.8200000000,   0.0000000000)
 A3 = (   0.0000000000,   0.0000000000,  15.0000000000)

   4 primitive cells build up your supercell.

 Routine SETGRP: Setting up the symmetry group for a
 simple tetragonal supercell.

 Subroutine GETGRP returns: Found  8 space group operations
 (whereof  8 operations were pure point group operations)
 out of a pool of 16 trial point group operations.

The constrained configuration has the point symmetry C_4v.

Analysis of magnetic symmetry:

 Subroutine MAGSYM returns: Found  8 space group operations
 (whereof  8 operations were pure point group operations)
 out of a pool of  8 trial space group operations
 (whereof  8 operations were pure point group operations)
 and found also     4 'primitive' translations

The magnetic configuration has the point symmetry C_4v.

 irot  :   1
 isymop:   1   0   0
           0   1   0
           0   0   1

 gtrans:     0.0000000     0.0000000     0.0000000

 ptrans:     0.0000000     0.0000000     0.0000000
 rotmap:
 (   1->   1)  (   2->   2)  (   3->   3)  (   4->   4)  (   5->   5)
 (   6->   6)  (   7->   7)  (   8->   8)  (   9->   9)  (  10->  10)
 (  11->  11)  (  12->  12)

[...]

 irot  :   8
 isymop:   0   1   0
           1   0   0
           0   0   1

 gtrans:     0.0000000     0.0000000     0.0000000

[...]

 ptrans:     0.5000000     0.5000000     0.0000000
 rotmap:
 (   1->   4)  (   2->   2)  (   3->   3)  (   4->   1)  (   5->   8)
 (   6->   6)  (   7->   7)  (   8->   5)  (   9->  12)  (  10->  10)
 (  11->  11)  (  12->   9)

 KPOINTS: K-Points

Automatic generation of k-mesh.
Space group operators:
 irot       det(A)        alpha          n_x          n_y          n_z        tau_x        tau_y        tau_z
    1     1.000000     0.000000     1.000000     0.000000     0.000000     0.000000     0.000000     0.000000
    2     1.000000    90.000000     0.000000     0.000000    -1.000000     0.000000     0.000000     0.000000
    3     1.000000   180.000000     0.000000     0.000000     1.000000     0.000000     0.000000     0.000000
    4     1.000000    90.000000     0.000000     0.000000     1.000000     0.000000     0.000000     0.000000
    5    -1.000000   180.000000     0.000000     1.000000     0.000000     0.000000     0.000000     0.000000
    6    -1.000000   180.000000     0.707107     0.707107     0.000000     0.000000     0.000000     0.000000
    7    -1.000000   180.000000     1.000000     0.000000     0.000000     0.000000     0.000000     0.000000
    8    -1.000000   180.000000     0.707107    -0.707107     0.000000     0.000000     0.000000     0.000000

 Subroutine IBZKPT returns following result:

 Found      1 irreducible k-points:

 Following reciprocal coordinates:
            Coordinates               Weight
  0.250000  0.250000  0.000000      4.000000

 Following cartesian coordinates:
            Coordinates               Weight
  0.044326  0.044326  0.000000      4.000000

 I would recommend the setting:
   dimension x,y,z NGX =    26 NGY =   26 NGZ =   69
 SYSTEM =  Crystal
 POSCAR =  header

 Startparameter for this run:
   NWRITE =      2    write-flag & timer
   PREC   = normal    normal or accurate (medium, high low for compatibility)
   ISTART =      0    job   : 0-new  1-cont  2-samecut
   ICHARG =      2    charge: 1-file 2-atom 10-const
   ISPIN  =      2    spin polarized calculation?
   LNONCOLLINEAR =      F non collinear calculations
   LSORBIT =      F    spin-orbit coupling
   INIWAV =      1    electr: 0-lowe 1-rand  2-diag
   LASPH  =      F    aspherical Exc in radial PAW
   METAGGA=      F    non-selfconsistent MetaGGA calc.

 Electronic Relaxation 1
   ENCUT  =  350.0 eV  25.72 Ry    5.07 a.u.   8.60  8.60 22.88*2*pi/ulx,y,z
   ENINI  =  350.0     initial cutoff
   ENAUG  =  511.4 eV  augmentation charge cutoff
   NELM   =     60;   NELMIN=  4; NELMDL=-10     # of ELM steps
   EDIFF  = 0.1E-03   stopping-criterion for ELM
   LREAL  =      F    real-space projection
   NLSPLINE    = F    spline interpolate recip. space projectors
   LCOMPAT=      F    compatible to vasp.4.4
   GGA_COMPAT  = T    GGA compatible to vasp.4.4-vasp.4.6
   LMAXPAW     = -100 max onsite density
   LMAXMIX     =    2 max onsite mixed and CHGCAR
   VOSKOWN=      0    Vosko Wilk Nusair interpolation
   ROPT   =    0.00000
 Ionic relaxation
   EDIFFG = -.1E-01   stopping-criterion for IOM
   NSW    =    300    number of steps for IOM
   NBLOCK =      1;   KBLOCK =    300    inner block; outer block
   IBRION =      2    ionic relax: 0-MD 1-quasi-New 2-CG
   NFREE  =      1    steps in history (QN), initial steepest desc. (CG)
   ISIF   =      2    stress and relaxation
   IWAVPR =     11    prediction:  0-non 1-charg 2-wave 3-comb
   ISYM   =      2    0-nonsym 1-usesym 2-fastsym
   LCORR  =      T    Harris-Foulkes like correction to forces

   POTIM  = 0.5000    time-step for ionic-motion
   TEIN   =    0.0    initial temperature
   TEBEG  =    0.0;   TEEND  =   0.0 temperature during run
   SMASS  =  -3.00    Nose mass-parameter (am)
   estimated Nose-frequenzy (Omega)   =  0.10E-29 period in steps =****** mass=  -0.727E-27a.u.
   SCALEE = 1.0000    scale energy and forces
   NPACO  =    256;   APACO  = 16.0  distance and # of slots for P.C.
   PSTRESS=    0.0 pullay stress

  Mass of Ions in am
   POMASS =  55.85
  Ionic Valenz
   ZVAL   =   8.00
  Atomic Wigner-Seitz radii
  virtual crystal weights
   VCA    =   1.00
   NELECT =      96.0000    total number of electrons
   NUPDOWN=      -1.0000    fix difference up-down

 DOS related values:
   EMIN   =  10.00;   EMAX   =-10.00  energy-range for DOS
   EFERMI =   0.00
   ISMEAR =     2;   SIGMA  =   0.10  broadening in eV -4-tet -1-fermi 0-gaus

 Electronic relaxation 2 (details)
   IALGO  =     68    algorithm
   LDIAG  =      T    sub-space diagonalisation (order eigenvalues)
   LSUBROT=      T    optimize rotation matrix (better conditioning)
   TURBO    =      0    0=normal 1=particle mesh
   IRESTART =      0    0=no restart 2=restart with 2 vectors
   NREBOOT  =      0    no. of reboots
   NMIN     =      0    reboot dimension
   EREF     =   0.00    reference energy to select bands
   IMIX   =      4    mixing-type and parameters
     AMIX     =   0.40;   BMIX     =  1.00
     AMIX_MAG =   1.60;   BMIX_MAG =  1.00
     AMIN     =   0.10
     WC   =   100.;   INIMIX=   1;  MIXPRE=   1;  MAXMIX= -45

 Intra band minimization:
   WEIMIN = 0.0010     energy-eigenvalue tresh-hold
   EBREAK =  0.40E-06  absolut break condition
   DEPER  =   0.30     relativ break condition

   TIME   =   0.40     timestep for ELM

  volume/ion in A,a.u.               =      39.76       268.33
  Fermi-wavevector in a.u.,A,eV,Ry     =   0.959287  1.812790 12.520522  0.920232
  Thomas-Fermi vector in A             =   2.088470

 Write flags
   LWAVE  =      F    write WAVECAR
   LCHARG =      F    write CHGCAR
   LVTOT  =      F    write LOCPOT, total local potential
   LVHAR  =      F    write LOCPOT, Hartree potential only
   LELF   =      F    write electronic localiz. function (ELF)
   LORBIT =      0    0 simple, 1 ext, 2 COOP (PROOUT)

 Dipole corrections
   LMONO  =      F    monopole corrections only (constant potential shift)
   LDIPOL =      F    correct potential (dipole corrections)
   IDIPOL =      0    1-x, 2-y, 3-z, 4-all directions
   EPSILON=  1.0000000 bulk dielectric constant

 Exchange correlation treatment:
   GGA     =    --    GGA type
[...]
     15      -4.2002      1.00000
     16      -4.1968      1.00000
     17      -4.1929      1.00000
     18      -4.0681      1.00000
     19      -3.9373      1.00000
     20      -3.9373      1.00000
     21      -3.9364      1.00000
     22      -3.8311      1.00000
     23      -3.8311      1.00000
     24      -3.7709      1.00000
     25      -3.6150      1.00000
     26      -3.3748      1.00000
     27      -3.3748      1.00000
     28      -3.2054      1.00000
     29      -3.2054      1.00000
     30      -3.1884      1.00000
     31      -3.1696      1.00000
     32      -3.0676      1.00000
     33      -2.8139      1.00000
     34      -2.8125      1.00000
     35      -2.8125      1.00000
     36      -2.7988      1.00000
     37      -2.7045      1.00000
     38      -2.7045      1.00000
     39      -2.6974      1.00000
     40      -2.6974      1.00000
     41      -2.6901      1.00000
     42      -2.5607      1.00000
     43      -2.5190      1.00000
     44      -2.4491      1.00000
     45      -2.3919      1.00000
     46      -2.3119      1.00000
     47      -2.2691      1.00000
     48      -2.2570      1.00000
     49      -2.2570      1.00000
     50      -2.2427      1.00000
     51      -2.2321      1.00000
     52      -2.2321      1.00000
     53      -1.8491      1.00000
     54      -1.8491      1.00000
     55      -1.7833      1.00000
     56      -1.7564      1.00000
     57      -1.4988      1.00000
     58      -1.4988      1.00000
     59      -1.4187      1.00000
     60      -1.3979      1.00000
     61      -1.3602      1.00000
     62      -1.2827      1.00000
     63      -0.6609      0.27054

[...]

 soft charge-density along one line, spin component           1
         0         1         2         3         4         5         6         7         8         9
 total charge-density along one line

[...]

------------------------ aborting loop because EDIFF is reached ----------------------------------------

  FORCE on cell =-STRESS in cart. coord.  units (eV):
  Direction    XX          YY          ZZ          XY          YZ          ZX
  Alpha Z   208.58239   208.58239   208.58239
  Ewald   15135.54242 15135.54242-19615.77714    -0.00000    -0.00000    -0.00000
  Hartree 16842.25487 16842.25487-15961.75634    -0.00000    -0.00000    -0.00000
  E(xc)    -471.28032  -471.28032  -472.60519    -0.00000     0.00000     0.00000
  Local  -32724.98918-32724.98918 34840.18574     0.00000    -0.00000    -0.00000
  n-local  -326.02184  -324.38794  -333.13788    -1.08813    -0.03610    -0.06978
  augment   463.73076   463.73076   463.03428    -0.00000     0.00000     0.00000
  Kinetic   855.01622   855.83747   867.79540     4.16258     0.12239     0.21492
  Fock        0.00000     0.00000     0.00000     0.00000     0.00000     0.00000
  Total     -15.93709   -15.93709    -3.67875     0.00000     0.00000     0.00000
  in kB     -53.51435   -53.51435   -12.35267     0.00000     0.00000     0.00000

 VOLUME and BASIS-vectors are now :
  energy-cutoff  :      350.00
  volume of cell :      477.14
      direct lattice vectors                 reciprocal lattice vectors
     5.640000000  0.000000000  0.000000000     0.177304965  0.000000000  0.000000000
     0.000000000  5.640000000  0.000000000     0.000000000  0.177304965  0.000000000
     0.000000000  0.000000000 15.000000000     0.000000000  0.000000000  0.066666667

[...]

 FORCES acting on ions
    electron-ion (+dipol)            ewald-force                    non-local-force                 convergence-correction
   -.298E-13 0.178E-13 0.966E+03   0.462E-13 0.571E-13 -.961E+03   -.163E-18 0.000E+00 -.573E+01   0.703E-12 0.367E-12 0.663E+00
   0.310E-12 0.269E-13 0.966E+03   0.462E-13 0.571E-13 -.961E+03   0.000E+00 0.434E-18 -.573E+01   0.534E-12 0.318E-12 0.663E+00
   -.286E-13 0.310E-12 0.966E+03   0.462E-13 0.571E-13 -.961E+03   0.461E-18 0.542E-19 -.573E+01   0.666E-12 0.575E-12 0.663E+00
   0.312E-12 0.271E-12 0.966E+03   0.462E-13 0.571E-13 -.961E+03   0.217E-18 0.000E+00 -.573E+01   0.556E-12 0.482E-12 0.663E+00
   0.127E-12 0.113E-12 -.324E+00   0.284E-13 0.000E+00 -.483E-12   -.867E-18 0.434E-18 0.205E-01   0.551E-12 -.115E-12 0.271E+00
   0.552E-12 0.399E-12 -.324E+00   0.284E-13 0.000E+00 -.426E-12   0.434E-18 0.130E-17 0.205E-01   0.670E-13 -.128E-12 0.271E+00
   0.128E-12 0.667E-12 -.324E+00   0.284E-13 -.142E-13 -.455E-12   -.867E-18 0.130E-17 0.205E-01   0.564E-12 0.162E-12 0.271E+00
   0.552E-12 0.420E-12 -.324E+00   0.284E-13 -.142E-13 -.455E-12   0.000E+00 -.173E-17 0.205E-01   -.306E-13 0.249E-12 0.271E+00
   -.245E-13 -.159E-13 -.966E+03   -.729E-13 -.540E-13 0.961E+03   0.867E-18 -.705E-18 0.575E+01   0.215E-12 0.642E-12 -.482E+00
   0.302E-12 -.116E-13 -.966E+03   -.711E-13 -.549E-13 0.961E+03   0.867E-18 0.651E-18 0.575E+01   -.394E-12 0.531E-12 -.482E+00
   -.237E-13 0.301E-12 -.966E+03   -.697E-13 -.460E-13 0.961E+03   0.000E+00 -.217E-18 0.575E+01   0.264E-12 0.765E-12 -.482E+00
   0.308E-12 0.296E-12 -.966E+03   -.678E-13 -.469E-13 0.961E+03   0.867E-18 -.651E-18 0.575E+01   -.357E-12 0.827E-12 -.482E+00
   0.248E-11 0.280E-11 -.203E+01   0.170E-13 -.189E-14 -.341E-12   0.182E-17 0.867E-18 0.183E+00   0.334E-11 0.467E-11 0.181E+01

 POSITION                                       TOTAL-FORCE (eV/Angst)
      0.00000      0.00000      0.00000        -0.000000     -0.000000      0.166719
      2.82000      0.00000      0.00000         0.000000      0.000000      0.166719
      0.00000      2.82000      0.00000        -0.000000      0.000000      0.166719
      2.82000      2.82000      0.00000        -0.000000      0.000000      0.166719
      1.41000      1.41000      1.41000        -0.000000      0.000000     -0.028561
      4.23000      1.41000      1.41000        -0.000000     -0.000000     -0.028561
      1.41000      4.23000      1.41000         0.000000     -0.000000     -0.028561
      4.23000      4.23000      1.41000        -0.000000      0.000000     -0.028561
      0.00000      0.00000      2.82000         0.000000     -0.000000     -0.138159
      2.82000      0.00000      2.82000         0.000000      0.000000     -0.138159
      0.00000      2.82000      2.82000         0.000000     -0.000000     -0.138159
      2.82000      2.82000      2.82000         0.000000      0.000000     -0.138159
    total drift:                                0.000000      0.000000     -0.040403

  FREE ENERGIE OF THE ION-ELECTRON SYSTEM (eV)
  free  energy   TOTEN  =       -87.67472578 eV

  energy  without entropy=      -87.66052207  energy(sigma->0) =      -87.67117486

[...]

 d Force = 0.2202821E-02[ 0.722E-03, 0.368E-02]  d Energy = 0.7818874E+00-0.780E+00
 d Force =-0.2561085E+02[-0.256E+02,-0.256E+02]  d Ewald  =-0.2561087E+02 0.256E-04

 Steepest descent step on ions:
 trial-energy change:   -0.781887  1 .order   -0.002203   -0.003683   -0.000722
  (g-gl).g = 0.368E-02      g.g   = 0.368E-02  gl.gl    = 0.000E+00
 g(Force)  = 0.368E-02   g(Stress)= 0.000E+00 ortho     = 0.000E+00
 gamma     =   0.00000
 trial     =   1.00000
 opt step  =   1.00015  (harmonic =   1.24391) maximal distance =0.00000000
 next E    =   -88.456613   (d E  =  -0.78189)

[...]

 d Force = 0.8863948E-04[ 0.815E-04, 0.958E-04]  d Energy = 0.5087955E-04 0.378E-04
 d Force =-0.4046468E+01[-0.405E+01,-0.405E+01]  d Ewald  =-0.4046468E+01 0.101E-06

 FEWALD executed in parallel

[...]

 eigenvalue-minimisations  :   248
 total energy-change (2. order) : 0.6149730E-04  (-0.1909276E-03)
 number of electron      96.0000264 magnetization      30.0000223
 augmentation part       50.2688573 magnetization      23.5285531

 Broyden mixing:
  rms(total) = 0.21368E-01    rms(broyden)= 0.21361E-01
  rms(prec ) = 0.24849E-01
  weight for this iteration     100.00

 eigenvalues of (default mixing * dielectric matrix)
  average eigenvalue GAMMA=   0.4188
  0.6339  0.2038

[...]

----------------------------------------- Iteration   14(   4)  ---------------------------------------

 eigenvalue-minimisations  :   191
 total energy-change (2. order) :-0.1656440E-05  (-0.5859122E-04)
 number of electron      96.0000264 magnetization      30.0000223
 augmentation part       50.2688573 magnetization      23.5285531

 Free energy of the ion-electron system (eV)
  alpha Z        PSCENC =       208.58239324
  Ewald energy   TEWEN  =     10697.10968567
  -1/2 Hartree   DENC   =    -17773.21699463
  -exchange  EXHF       =         0.00000000
  -V(xc)+E(xc)   XCENC  =        49.11178248
  PAW double counting   =      8104.10040730    -8210.96931576
  entropy T*S    EENTRO =         0.01162968
  eigenvalues    EBANDS =      -294.72458518
  atomic energy  EATOM  =      7131.53793727
  free energy    TOTEN  =       -88.45705992 eV

  energy without entropy =      -88.46868960  energy(sigma->0) =      -88.45996734

 average (electrostatic) potential at core
  the test charge radii are     1.0103
  (the norm of the test charge is              1.0000)
       1 -50.2345       2 -50.2345       3 -50.2345       4 -50.2345       5 -49.9756
       6 -49.9756       7 -49.9756       8 -49.9756       9 -50.2194      10 -50.2194
      11 -50.2194      12 -50.2194

 E-fermi :  -0.7668     XC(G=0):  -5.1356     alpha+bet : -3.8983

[...]

 spin component 2

 k-point   1 :       0.2500    0.2500    0.0000
  band No.  band energies     occupation
      1      -7.3281      1.00000
      2      -5.2629      1.00000
      3      -5.2629      1.00000
      4      -4.4093      1.00000
      5      -4.0559      1.00000
      6      -3.5191      1.00000
      7      -3.5191      1.00000
      8      -3.3455      1.00000
      9      -3.3455      1.00000
     10      -3.2567      1.00000
     11      -3.2371      1.00000
     12      -3.2086      1.00000
     13      -2.6563      1.00000
     14      -2.5979      1.00000
     15      -2.4227      1.00000
     16      -2.3528      1.00000
     17      -2.3508      1.00000
     18      -2.3508      1.00000
     19      -2.1360      1.00000
     20      -2.1360      1.00000
     21      -2.0471      1.00000
     22      -1.9516      1.00000
     23      -1.9105      1.00000
     24      -1.9105      1.00000
     25      -1.6015      1.00000
     26      -1.2555      1.00000
     27      -1.2555      1.00000
     28      -1.1918      1.00000
     29      -1.0382      0.99900
     30      -1.0382      0.99900
     31      -0.9201      1.00863
     32      -0.8344      1.01405
     33      -0.8344      1.01405
     34      -0.6496     -0.04029
     35      -0.5777      0.00431
     36      -0.5008      0.00121
     37      -0.4053      0.00001
     38      -0.4018      0.00001
     39      -0.4018      0.00001
     40      -0.2497      0.00000
     41      -0.2497      0.00000
     42      -0.1687      0.00000
     43      -0.0960      0.00000
     44       0.1487      0.00000
     45       0.1679      0.00000
     46       0.1831      0.00000
     47       0.2841      0.00000
     48       0.2841      0.00000
     49       0.3274      0.00000
     50       0.3692      0.00000
     51       0.3692      0.00000
     52       0.5389      0.00000
     53       0.6092      0.00000
     54       0.6092      0.00000
     55       0.6948      0.00000
     56       0.6976      0.00000
     57       0.6976      0.00000
     58       0.7889      0.00000
     59       0.8452      0.00000
     60       0.8662      0.00000
     61       0.8816      0.00000
     62       1.0039      0.00000
     63       1.0630      0.00000

[...]

 soft charge-density along one line, spin component           2
         0         1         2         3         4         5         6         7         8         9
 total charge-density along one line

------------------------ aborting loop because EDIFF is reached ----------------------------------------

  FORCE on cell =-STRESS in cart. coord.  units (eV):
  Direction    XX          YY          ZZ          XY          YZ          ZX
  Alpha Z   208.58239   208.58239   208.58239
  Ewald   15181.79293 15181.79293-19666.48509    -0.00000    -0.00000    -0.00000
  Hartree 16894.21249 16894.21249-16014.37733    -0.00000    -0.00000    -0.00000
  E(xc)    -472.93265  -472.93265  -474.01193    -0.00000    -0.00000     0.00000
  Local  -32822.02099-32822.02099 34947.09506     0.00000    -0.00000     0.00000
  n-local  -325.07855  -323.63236  -331.66777    -2.32428    -0.00000    -0.00000
  augment   464.68160   464.68160   462.74008    -0.00000     0.00000    -0.00000
  Kinetic   856.15627   857.22945   867.70244     2.85646    -0.00000    -0.00001
  Fock        0.00000     0.00000     0.00000     0.00000     0.00000     0.00000
  Total     -13.34682   -13.34682    -0.42214    -0.00000     0.00000    -0.00000
  in kB     -44.81662   -44.81662    -1.41750    -0.00000     0.00000    -0.00000

 VOLUME and BASIS-vectors are now :
  energy-cutoff  :      350.00
  volume of cell :      477.14
      direct lattice vectors                 reciprocal lattice vectors
     5.640000000  0.000000000  0.000000000     0.177304965  0.000000000  0.000000000
     0.000000000  5.640000000  0.000000000     0.000000000  0.177304965  0.000000000
     0.000000000  0.000000000 15.000000000     0.000000000  0.000000000  0.066666667

  length of vectors
     5.640000000  5.640000000 15.000000000     0.177304965  0.177304965  0.066666667

 FORCES acting on ions
    electron-ion (+dipol)            ewald-force                    non-local-force                 convergence-correction
   -.107E-13 -.526E-14 0.967E+03   0.432E-13 0.587E-13 -.962E+03   0.000E+00 0.000E+00 -.587E+01   0.103E-13 0.182E-13 0.458E+00
   0.301E-12 0.229E-13 0.967E+03   0.432E-13 0.587E-13 -.962E+03   0.000E+00 0.000E+00 -.587E+01   0.868E-14 0.544E-13 0.458E+00
   -.199E-14 0.347E-12 0.967E+03   0.432E-13 0.588E-13 -.962E+03   0.000E+00 0.000E+00 -.587E+01   0.698E-14 0.173E-13 0.458E+00
   0.301E-12 0.286E-12 0.967E+03   0.432E-13 0.588E-13 -.962E+03   0.000E+00 0.000E+00 -.587E+01   0.864E-14 -.104E-13 0.458E+00
   0.154E-12 0.153E-12 -.199E+01   -.568E-13 -.568E-13 0.828E+00   0.000E+00 0.000E+00 -.207E-01   -.149E-12 0.484E-13 0.113E+01
   0.524E-12 0.445E-12 -.199E+01   -.568E-13 -.568E-13 0.828E+00   0.000E+00 0.000E+00 -.207E-01   0.138E-12 0.445E-13 0.113E+01
   0.149E-12 0.633E-12 -.199E+01   -.568E-13 -.711E-13 0.828E+00   0.000E+00 0.000E+00 -.207E-01   -.116E-12 0.192E-14 0.113E+01
   0.522E-12 0.380E-12 -.199E+01   -.568E-13 -.711E-13 0.828E+00   0.000E+00 0.000E+00 -.207E-01   0.103E-12 -.217E-14 0.113E+01
   -.109E-13 0.142E-13 -.967E+03   0.123E-13 0.277E-14 0.961E+03   0.000E+00 0.000E+00 0.589E+01   -.174E-13 -.417E-13 0.576E+00
   0.295E-12 -.198E-13 -.967E+03   0.142E-13 0.187E-14 0.961E+03   0.000E+00 0.000E+00 0.589E+01   -.118E-13 -.246E-12 0.576E+00
   -.145E-13 0.311E-12 -.967E+03   0.156E-13 0.109E-13 0.961E+03   0.000E+00 0.000E+00 0.589E+01   -.211E-13 0.422E-13 0.576E+00
   0.294E-12 0.308E-12 -.967E+03   0.175E-13 0.998E-14 0.961E+03   0.000E+00 0.000E+00 0.589E+01   -.111E-13 0.218E-12 0.576E+00
   0.250E-11 0.288E-11 -.877E+01   0.511E-14 0.458E-14 -.102E-11   0.000E+00 0.000E+00 -.268E-03   -.500E-13 0.144E-12 0.865E+01

 POSITION                                       TOTAL-FORCE (eV/Angst)
      0.00000      0.00000      0.00000        -0.000000      0.000000      0.040947
      2.82000      0.00000      0.00000        -0.000000      0.000000      0.040947
      0.00000      2.82000      0.00000        -0.000000     -0.000000      0.040947
      2.82000      2.82000      0.00000        -0.000000     -0.000000      0.040947
      1.41000      1.41000      1.41000        -0.000000      0.000000     -0.046211
      4.23000      1.41000      1.41000         0.000000      0.000000     -0.046211
      1.41000      4.23000      1.41000        -0.000000     -0.000000     -0.046211
      4.23000      4.23000      1.41000         0.000000     -0.000000     -0.046211
      0.00000     -0.00000      2.80912         0.000000     -0.000000      0.005264
      2.82000      0.00000      2.80912        -0.000000     -0.000000      0.005264
      0.00000      2.82000      2.80912         0.000000      0.000000      0.005264
      2.82000      2.82000      2.80912        -0.000000     -0.000000      0.005264
    total drift:                                0.000000      0.000000     -0.120068

  FREE ENERGIE OF THE ION-ELECTRON SYSTEM (eV)
  free  energy   TOTEN  =       -88.45705992 eV

  energy  without entropy=      -88.46868960  energy(sigma->0) =      -88.45996734

 d Force = 0.5932614E-04[-0.443E-04, 0.163E-03]  d Energy =-0.4229047E-04 0.102E-03
 d Force =-0.8093383E+01[-0.809E+01,-0.809E+01]  d Ewald  =-0.8093384E+01 0.814E-06

 reached required accuracy - stopping structural energy minimisation