 vasp.5.3.3 18Dez12 (build Sep  7 2015 22:32:56) complex

 executed on             LinuxIFC date 2002.03.05  00:35:00

 INCAR:
 POTCAR:    PAW_PBE Fe 06Sep2000
 POTCAR:    PAW_PBE Fe 06Sep2000
   VRHFIN =Fe:  d7 s1

   TITEL  = PAW_PBE Fe 06Sep2000
   POMASS =   55.847; ZVAL   =    8.000    mass and valenz
   ENMAX  =  267.882; ENMIN  =  200.911 eV

  PAW_PBE Fe 06Sep2000                  :

 POSCAR: header
  positions in cartesian coordinates
 exchange correlation table for  LEXCH =        8
   RHO(1)=    0.500       N(1)  =     2000
   RHO(2)=  100.500       N(2)  =     4000

 ion  position               nearest neighbor table
   1  0.000  0.000  0.000-   2 2.44   2 2.44   2 2.44   2 2.44   3 2.82
   2  0.500  0.500  0.074-   3 2.44   3 2.44   3 2.44   3 2.44   1 2.44   1 2.44   1 2.44   1 2.44
                             4 2.82
   3  0.000  0.000  0.148-   2 2.44   2 2.44   2 2.44   2 2.44   4 2.44   4 2.44   4 2.44   4 2.44
                             1 2.82
   4  0.500  0.500  0.222-   3 2.44   3 2.44   3 2.44   3 2.44   6 2.82   2 2.82
   5  0.000  0.000  0.349-   6 2.04   6 2.04   6 2.04   6 2.04
   6  0.500  0.500  0.370-   5 2.04   5 2.04   5 2.04   5 2.04   4 2.82

  LATTYP: Found a simple tetragonal cell.
 ALAT       =     2.8200000000
 C/A-ratio  =     6.7553191489

  Lattice vectors:

 A1 = (   2.8200000000,   0.0000000000,   0.0000000000)
 A2 = (   0.0000000000,   2.8200000000,   0.0000000000)
 A3 = (   0.0000000000,   0.0000000000,  19.0500000000)

Analysis of symmetry for initial positions (statically):
 Subroutine PRICEL returns:
 Original cell was already a primitive cell.

 Routine SETGRP: Setting up the symmetry group for a
 simple tetragonal supercell.

 Subroutine GETGRP returns: Found  8 space group operations
 (whereof  8 operations were pure point group operations)
 out of a pool of 16 trial point group operations.

The static configuration has the point symmetry C_4v.

Analysis of symmetry for dynamics (positions and initial velocities):
 Subroutine PRICEL returns:
 Original cell was already a primitive cell.

[...]

The dynamic configuration has the point symmetry C_4v.

Analysis of constrained symmetry for selective dynamics:
 Subroutine PRICEL returns:
 Original cell was already a primitive cell.

 Routine SETGRP: Setting up the symmetry group for a
 simple tetragonal supercell.

 Subroutine GETGRP returns: Found  8 space group operations
 (whereof  8 operations were pure point group operations)
 out of a pool of 16 trial point group operations.

The constrained configuration has the point symmetry C_4v.

Analysis of magnetic symmetry:

 Subroutine MAGSYM returns: Found  8 space group operations
 (whereof  8 operations were pure point group operations)
 out of a pool of  8 trial space group operations
 (whereof  8 operations were pure point group operations)
 and found also     1 'primitive' translations

The magnetic configuration has the point symmetry C_4v.

 irot  :   1
 isymop:   1   0   0
           0   1   0
           0   0   1

 gtrans:     0.0000000     0.0000000     0.0000000

 ptrans:     0.0000000     0.0000000     0.0000000
 rotmap:
 (   1->   1)  (   2->   2)  (   3->   3)  (   4->   4)  (   5->   5)
 (   6->   6)

[...]

 irot  :   8
 isymop:   0   1   0
           1   0   0
           0   0   1

 gtrans:     0.0000000     0.0000000     0.0000000

 ptrans:     0.0000000     0.0000000     0.0000000
 rotmap:
 (   1->   1)  (   2->   2)  (   3->   3)  (   4->   4)  (   5->   5)
 (   6->   6)

 KPOINTS: K-Points

Automatic generation of k-mesh.
Space group operators:
 irot       det(A)        alpha          n_x          n_y          n_z        tau_x        tau_y        tau_z
    1     1.000000     0.000000     1.000000     0.000000     0.000000     0.000000     0.000000     0.000000
    2     1.000000    90.000000     0.000000     0.000000    -1.000000     0.000000     0.000000     0.000000
    3     1.000000   180.000000     0.000000     0.000000     1.000000     0.000000     0.000000     0.000000
    4     1.000000    90.000000     0.000000     0.000000     1.000000     0.000000     0.000000     0.000000
    5    -1.000000   179.999999     0.000000     1.000000     0.000000     0.000000     0.000000     0.000000
    6    -1.000000   180.000000     0.707107     0.707107     0.000000     0.000000     0.000000     0.000000
    7    -1.000000   180.000000     1.000000     0.000000     0.000000     0.000000     0.000000     0.000000
    8    -1.000000   180.000000     0.707107    -0.707107     0.000000     0.000000     0.000000     0.000000

 Subroutine IBZKPT returns following result:

 Found      6 irreducible k-points:

 Following reciprocal coordinates:
            Coordinates               Weight
  0.000000  0.000000  0.000000      1.000000
  0.200000  0.000000  0.000000      4.000000
  0.400000  0.000000  0.000000      4.000000
  0.200000  0.200000  0.000000      4.000000
  0.400000  0.200000  0.000000      8.000000
  0.400000  0.400000  0.000000      4.000000

 Following cartesian coordinates:
            Coordinates               Weight
  0.000000  0.000000  0.000000      1.000000
  0.070922  0.000000  0.000000      4.000000
  0.141844  0.000000  0.000000      4.000000
  0.070922  0.070922  0.000000      4.000000
  0.141844  0.070922  0.000000      8.000000
  0.141844  0.141844  0.000000      4.000000

 I would recommend the setting:
   dimension x,y,z NGX =    13 NGY =   13 NGZ =   87
 SYSTEM =  Crystal
 POSCAR =  header

 Startparameter for this run:
   NWRITE =      2    write-flag & timer
   PREC   = normal    normal or accurate (medium, high low for compatibility)
   ISTART =      0    job   : 0-new  1-cont  2-samecut
   ICHARG =      2    charge: 1-file 2-atom 10-const
   ISPIN  =      2    spin polarized calculation?
   LNONCOLLINEAR =      F non collinear calculations
   LSORBIT =      F    spin-orbit coupling
   INIWAV =      1    electr: 0-lowe 1-rand  2-diag
   LASPH  =      F    aspherical Exc in radial PAW
   METAGGA=      F    non-selfconsistent MetaGGA calc.

 Electronic Relaxation 1
   ENCUT  =  350.0 eV  25.72 Ry    5.07 a.u.   4.30  4.30 29.06*2*pi/ulx,y,z
   ENINI  =  350.0     initial cutoff
   ENAUG  =  511.4 eV  augmentation charge cutoff
   NELM   =     60;   NELMIN=  4; NELMDL=-10     # of ELM steps
   EDIFF  = 0.1E-03   stopping-criterion for ELM
   LREAL  =      F    real-space projection
   NLSPLINE    = F    spline interpolate recip. space projectors
   LCOMPAT=      F    compatible to vasp.4.4
   GGA_COMPAT  = T    GGA compatible to vasp.4.4-vasp.4.6
   LMAXPAW     = -100 max onsite density
   LMAXMIX     =    2 max onsite mixed and CHGCAR
   VOSKOWN=      0    Vosko Wilk Nusair interpolation
   ROPT   =    0.00000
 Ionic relaxation
   EDIFFG = -.1E-01   stopping-criterion for IOM
   NSW    =      0    number of steps for IOM
   NBLOCK =      1;   KBLOCK =      1    inner block; outer block
   IBRION =     -1    ionic relax: 0-MD 1-quasi-New 2-CG
   NFREE  =      1    steps in history (QN), initial steepest desc. (CG)
   ISIF   =      2    stress and relaxation
   IWAVPR =     10    prediction:  0-non 1-charg 2-wave 3-comb
   ISYM   =      2    0-nonsym 1-usesym 2-fastsym
   LCORR  =      T    Harris-Foulkes like correction to forces

   POTIM  = 0.5000    time-step for ionic-motion
   TEIN   =    0.0    initial temperature
   TEBEG  =    0.0;   TEEND  =   0.0 temperature during run
   SMASS  =  -3.00    Nose mass-parameter (am)
   estimated Nose-frequenzy (Omega)   =  0.10E-29 period in steps =****** mass=  -0.182E-27a.u.
   SCALEE = 1.0000    scale energy and forces
   NPACO  =    256;   APACO  = 16.0  distance and # of slots for P.C.
   PSTRESS=    0.0 pullay stress

  Mass of Ions in am
   POMASS =  55.85
  Ionic Valenz
   ZVAL   =   8.00
  Atomic Wigner-Seitz radii
  virtual crystal weights
   VCA    =   1.00
   NELECT =      48.0000    total number of electrons
   NUPDOWN=      -1.0000    fix difference up-down

 DOS related values:
   EMIN   =  10.00;   EMAX   =-10.00  energy-range for DOS
   EFERMI =   0.00
   ISMEAR =     2;   SIGMA  =   0.10  broadening in eV -4-tet -1-fermi 0-gaus

 Electronic relaxation 2 (details)
   IALGO  =     68    algorithm
   LDIAG  =      T    sub-space diagonalisation (order eigenvalues)
   LSUBROT=      T    optimize rotation matrix (better conditioning)
   TURBO    =      0    0=normal 1=particle mesh
   IRESTART =      0    0=no restart 2=restart with 2 vectors
   NREBOOT  =      0    no. of reboots
   NMIN     =      0    reboot dimension
   EREF     =   0.00    reference energy to select bands
   IMIX   =      4    mixing-type and parameters
     AMIX     =   0.40;   BMIX     =  1.00
     AMIX_MAG =   1.60;   BMIX_MAG =  1.00
     AMIN     =   0.10
     WC   =   100.;   INIMIX=   1;  MIXPRE=   1;  MAXMIX= -45

 Intra band minimization:
   WEIMIN = 0.0000     energy-eigenvalue tresh-hold
   EBREAK =  0.81E-06  absolut break condition
   DEPER  =   0.30     relativ break condition

   TIME   =   0.40     timestep for ELM

  volume/ion in A,a.u.               =      25.25       170.39
  Fermi-wavevector in a.u.,A,eV,Ry     =   1.116068  2.109064 16.947537  1.245609
  Thomas-Fermi vector in A             =   2.252679

 Write flags
   LWAVE  =      F    write WAVECAR
   LCHARG =      F    write CHGCAR
   LVTOT  =      F    write LOCPOT, total local potential
   LVHAR  =      F    write LOCPOT, Hartree potential only
   LELF   =      F    write electronic localiz. function (ELF)
   LORBIT =      0    0 simple, 1 ext, 2 COOP (PROOUT)

 Dipole corrections
   LMONO  =      F    monopole corrections only (constant potential shift)
   LDIPOL =      F    correct potential (dipole corrections)
   IDIPOL =      0    1-x, 2-y, 3-z, 4-all directions
   EPSILON=  1.0000000 bulk dielectric constant

 Exchange correlation treatment:
   GGA     =    --    GGA type
   VOSKOWN=      0    Vosko Wilk Nusair interpolation
   LHFCALC =     F    Hartree Fock is set to
   LHFONE  =     F    Hartree Fock one center treatment
   AEXX    =    0.0000 exact exchange contribution

 Linear response parameters
   LEPSILON=     F    determine dielectric tensor
   LRPA    =     F    only Hartree local field effects (RPA)
   LNABLA  =     F    use nabla operator in PAW spheres
   LVEL    =     F    velocity operator in full k-point grid
   LINTERFAST=   F  fast interpolation
   KINTER  =     0    interpolate to denser k-point grid
   CSHIFT  =0.1000    complex shift for real part using Kramers Kronig
   OMEGAMAX=  -1.0    maximum frequency
   DEG_THRESHOLD= 0.2000000E-02 threshold for treating states as degnerate
   RTIME   =    0.100 relaxation time in fs

 Orbital magnetization related:
   ORBITALMAG=     F  switch on orbital magnetization
   LCHIMAG   =     F  perturbation theory with respect to B field
   DQ        =  0.001000  dq finite difference perturbation B field

 Static calculation
 charge density and potential will be updated during run
 spin polarized calculation
 RMM-DIIS sequential band-by-band and
  variant of blocked Davidson during initial phase
 perform sub-space diagonalisation
    before iterative eigenvector-optimisation
 modified Broyden-mixing scheme, WC =      100.0
 initial mixing is a Kerker type mixing with AMIX =  0.4000 and BMIX =      1.0000
 Hartree-type preconditioning will be used
 using additional bands            7
 reciprocal scheme for non local part
 use partial core corrections
 calculate Harris-corrections to forces
   (improved forces if not selfconsistent)
 use gradient corrections
 use of overlap-Matrix (Vanderbilt PP)
 Methfessel and Paxton  Order N= 2 SIGMA  =   0.10

  energy-cutoff  :      350.00
  volume of cell :      151.49
      direct lattice vectors                 reciprocal lattice vectors
     2.820000000  0.000000000  0.000000000     0.354609929  0.000000000  0.000000000
     0.000000000  2.820000000  0.000000000     0.000000000  0.354609929  0.000000000
     0.000000000  0.000000000 19.050000000     0.000000000  0.000000000  0.052493438

  length of vectors
     2.820000000  2.820000000 19.050000000     0.354609929  0.354609929  0.052493438

 k-points in units of 2pi/SCALE and weight: K-Points
   0.00000000  0.00000000  0.00000000       0.040
   0.07092199  0.00000000  0.00000000       0.160
   0.14184397  0.00000000  0.00000000       0.160
   0.07092199  0.07092199  0.00000000       0.160
   0.14184397  0.07092199  0.00000000       0.320
   0.14184397  0.14184397  0.00000000       0.160

 k-points in reciprocal lattice and weights: K-Points
   0.00000000  0.00000000  0.00000000       0.040
   0.20000000  0.00000000  0.00000000       0.160
   0.40000000  0.00000000  0.00000000       0.160
   0.20000000  0.20000000  0.00000000       0.160
   0.40000000  0.20000000  0.00000000       0.320
   0.40000000  0.40000000  0.00000000       0.160

 position of ions in fractional coordinates (direct lattice)
   0.00000000  0.00000000  0.00000000
   0.50000000  0.50000000  0.07401575
   0.00000000  0.00000000  0.14803150
   0.50000000  0.50000000  0.22204724
   0.00000000  0.00000000  0.34855643
   0.50000000  0.50000000  0.37007874

 position of ions in cartesian coordinates  (Angst):
   0.00000000  0.00000000  0.00000000
   1.41000000  1.41000000  1.41000000
   0.00000000  0.00000000  2.82000000
   1.41000000  1.41000000  4.23000000
   0.00000000  0.00000000  6.64000000
   1.41000000  1.41000000  7.05000000

 k-point  1 :   0.0000 0.0000 0.0000  plane waves:    2255
 k-point  2 :   0.2000 0.0000 0.0000  plane waves:    2251
 k-point  3 :   0.4000 0.0000 0.0000  plane waves:    2258
 k-point  4 :   0.2000 0.2000 0.0000  plane waves:    2260
 k-point  5 :   0.4000 0.2000 0.0000  plane waves:    2252
 k-point  6 :   0.4000 0.4000 0.0000  plane waves:    2226

 maximum and minimum number of plane-waves per node :      2260     2226

 maximum number of plane-waves:      2260
 maximum index in each direction:
   IXMAX=    4   IYMAX=    4   IZMAX=   29
   IXMIN=   -4   IYMIN=   -4   IZMIN=  -29

 WARNING: aliasing errors must be expected set NGX to  18 to avoid them
 WARNING: aliasing errors must be expected set NGY to  18 to avoid them
 WARNING: aliasing errors must be expected set NGZ to 118 to avoid them
 aliasing errors are usually negligible using standard VASP settings
 and one can safely disregard these warnings

 serial   3D FFT for wavefunctions
 parallel 3D FFT for charge:
    minimum data exchange during FFTs selected (reduces bandwidth)

 Broyden mixing: mesh for mixing (old mesh)
   NGX =  9   NGY =  9   NGZ = 59
  (NGX  = 28   NGY  = 28   NGZ  =180)
  gives a total of   4779 points

 initial charge density was supplied:
 charge density of overlapping atoms calculated
 number of electron      48.0000000 magnetization       6.0000000
 keeping initial charge density in first step

 Maximum index for augmentation-charges         4023 (set IRDMAX)

 First call to EWALD:  gamma=   0.332
 Maximum number of real-space cells 5x 5x 1
 Maximum number of reciprocal cells 2x 2x 9

 FEWALD executed in parallel

----------------------------------------- Iteration    1(   1)  ---------------------------------------

 eigenvalue-minimisations  :   744
 total energy-change (2. order) : 0.3363777E+03  (-0.1646093E+04)
 number of electron      48.0000000 magnetization       6.0000000
 augmentation part       48.0000000 magnetization       6.0000000

 Free energy of the ion-electron system (eV)
  alpha Z        PSCENC =       164.23810491
  Ewald energy   TEWEN  =      8392.27952033
  -1/2 Hartree   DENC   =    -12055.16771868
  -exchange  EXHF       =         0.00000000
  -V(xc)+E(xc)   XCENC  =        22.55308144
  PAW double counting   =      3328.36036734    -3374.58551447
  entropy T*S    EENTRO =        -0.00762557
  eigenvalues    EBANDS =       292.93848547
  atomic energy  EATOM  =      3565.76896863
  free energy    TOTEN  =       336.37766941 eV

  energy without entropy =      336.38529497  energy(sigma->0) =      336.37957580

[...]

 eigenvalue-minimisations  :   744
 total energy-change (2. order) :-0.3552860E+03  (-0.3405499E+03)
 number of electron      48.0000000 magnetization       6.0000000
 augmentation part       48.0000000 magnetization       6.0000000

[...]

 Broyden mixing:
  rms(total) = 0.30426E+01    rms(broyden)= 0.30420E+01
  rms(prec ) = 0.36535E+01
  weight for this iteration     100.00

[...]

 eigenvalues of (default mixing * dielectric matrix)
  average eigenvalue GAMMA=   0.1190
  0.1190

[...]

 eigenvalue-minimisations  :   709
 total energy-change (2. order) : 0.4294176E-03  (-0.4635386E-03)
 number of electron      48.0000143 magnetization      12.4885265
 augmentation part       25.0283567 magnetization      10.0170784

[...]

 Broyden mixing:
  rms(total) = 0.14018E-01    rms(broyden)= 0.14013E-01
  rms(prec ) = 0.18147E-01
  weight for this iteration     100.00

 eigenvalues of (default mixing * dielectric matrix)
  average eigenvalue GAMMA=   1.0256
  3.8554  3.8554  3.4502  3.4502  1.9435  1.9435  2.0258  2.0258  1.4189  1.4189
  1.2074  1.2074  0.8625  0.8625  0.9526  0.9526  0.6888  0.6888  0.8598  0.4346
  0.4346  0.7286  0.7286  0.0429  0.0817  0.1271  0.6635  0.6635  0.1791  0.5685
  0.5685  0.3076  0.3076  0.6010  0.6010  0.5542  0.5542  0.5659  0.5659  0.4849
  0.4849  0.3832  0.3832  0.4413

[...]

----------------------------------------- Iteration    1(  60)  ---------------------------------------

 eigenvalue-minimisations  :   609
 total energy-change (2. order) :-0.1665676E-02  (-0.6932858E-04)
 number of electron      48.0000144 magnetization      12.5291481
 augmentation part       25.0325298 magnetization      10.0185603

 Free energy of the ion-electron system (eV)
  alpha Z        PSCENC =       164.23810491
  Ewald energy   TEWEN  =      8392.27952033
  -1/2 Hartree   DENC   =    -12035.86249811
  -exchange  EXHF       =         0.00000000
  -V(xc)+E(xc)   XCENC  =        24.36133360
  PAW double counting   =      4365.47485588    -4421.81382353
  entropy T*S    EENTRO =        -0.00063726
  eigenvalues    EBANDS =       -96.09995117
  atomic energy  EATOM  =      3565.76896863
  free energy    TOTEN  =       -41.65412671 eV

  energy without entropy =      -41.65348945  energy(sigma->0) =      -41.65396739

 average (electrostatic) potential at core
  the test charge radii are     1.0103
  (the norm of the test charge is              1.0000)
       1 -48.9807       2 -49.0213       3 -48.9774       4 -48.9900       5 -49.0705
       6 -49.1076

 E-fermi :   0.5056     XC(G=0):  -6.7373     alpha+bet : -6.1391

 spin component 1

 k-point   1 :       0.0000    0.0000    0.0000
  band No.  band energies     occupation
      1      -7.5993      1.00000
      2      -6.6163      1.00000
      3      -6.2162      1.00000
      4      -5.2885      1.00000
      5      -4.5773      1.00000
      6      -4.3769      1.00000
      7      -4.2975      1.00000
      8      -3.9735      1.00000
      9      -3.4231      1.00000
     10      -2.9044      1.00000
     11      -2.2660      1.00000
     12      -2.2660      1.00000
     13      -2.2469      1.00000
     14      -2.0562      1.00000
     15      -2.0561      1.00000
     16      -1.8844      1.00000
     17      -1.8844      1.00000
     18      -1.6902      1.00000
     19      -1.4371      1.00000
     20      -1.3315      1.00000
     21      -1.2466      1.00000
     22      -1.2413      1.00000
     23      -1.2413      1.00000
     24      -0.5803      1.00000
     25      -0.5707      1.00000
     26      -0.1635      1.00000
     27      -0.1534      1.00000
     28      -0.1534      1.00000
     29      -0.0816      1.00000
     30      -0.0816      1.00000
     31       0.0853      1.00000

[...]

 spin component 2

[...]

 k-point   6 :       0.4000    0.4000    0.0000
  band No.  band energies     occupation
      1      -3.2405      1.00000
      2      -2.8628      1.00000
      3      -2.7524      1.00000
      4      -2.7158      1.00000
      5      -2.3082      1.00000
      6      -1.8415      1.00000
      7      -1.7585      1.00000
      8      -1.6860      1.00000
      9      -1.6858      1.00000
     10      -1.5087      1.00000
     11      -1.4964      1.00000
     12      -1.2574      1.00000
     13      -0.9565      1.00000
     14      -0.8972      1.00000
     15      -0.5780      1.00000
     16      -0.0348      1.00000
     17       0.4192      1.04818
     18       0.6907      0.00379
     19       1.2020      0.00000
     20       1.2513      0.00000
     21       1.2636      0.00000
     22       1.3034      0.00000
     23       1.6254      0.00000
     24       1.6712      0.00000
     25       1.8092      0.00000
     26       1.8450      0.00000
     27       1.9273      0.00000
     28       1.9334      0.00000
     29       2.0908      0.00000
     30       2.2402      0.00000
     31       2.3284      0.00000

 soft charge-density along one line, spin component           1
         0         1         2         3         4         5         6         7         8         9
 total charge-density along one line

 soft charge-density along one line, spin component           2
         0         1         2         3         4         5         6         7         8         9
 total charge-density along one line

------------------------ aborting loop because EDIFF is reached ----------------------------------------

  FORCE on cell =-STRESS in cart. coord.  units (eV):
  Direction    XX          YY          ZZ          XY          YZ          ZX
  Alpha Z   164.23810   164.23810   164.23810
  Ewald   10790.50448 10790.50448-13188.73192    -0.00000    -0.00000    -0.00000
  Hartree 11648.05516 11648.05516-11264.73019    -0.00000    -0.00000    -0.00000
  E(xc)    -238.06696  -238.06696  -237.71226     0.00000    -0.00000     0.00000
  Local  -22862.62644-22862.62644 24007.15914     0.00000    -0.00000     0.00000
  n-local  -158.84411  -148.07692  -159.53865     3.48181     0.00313    -0.01529
  augment   227.38694   227.38694   233.42635    -0.00000    -0.00000    -0.00000
  Kinetic   441.62489   425.40617   447.89775     3.21298    -0.02011     0.02678
  Fock        0.00000     0.00000     0.00000     0.00000     0.00000     0.00000
  Total       9.54631     9.54631     2.00833     0.00000     0.00000    -0.00000
  in kB     100.96087   100.96087    21.23993     0.00000     0.00000    -0.00000

 VOLUME and BASIS-vectors are now :
  energy-cutoff  :      350.00
  volume of cell :      151.49
      direct lattice vectors                 reciprocal lattice vectors
     2.820000000  0.000000000  0.000000000     0.354609929  0.000000000  0.000000000
     0.000000000  2.820000000  0.000000000     0.000000000  0.354609929  0.000000000
     0.000000000  0.000000000 19.050000000     0.000000000  0.000000000  0.052493438

  length of vectors
     2.820000000  2.820000000 19.050000000     0.354609929  0.354609929  0.052493438

 FORCES acting on ions
    electron-ion (+dipol)            ewald-force                    non-local-force                 convergence-correction
   -.162E-13 -.133E-13 0.187E+04   0.182E-13 0.352E-14 -.186E+04   0.000E+00 -.813E-19 -.567E+01   0.125E-12 -.534E-13 0.371E+00
   0.176E-12 0.160E-12 0.114E+04   -.218E-13 -.291E-14 -.114E+04   0.108E-18 0.000E+00 0.228E+00   0.108E-12 0.936E-13 0.343E+00
   -.106E-13 -.405E-14 0.324E+03   0.641E-14 0.420E-14 -.323E+03   0.000E+00 0.000E+00 -.202E+00   -.410E-13 -.328E-13 -.254E+00
   0.196E-12 0.266E-12 -.402E+03   0.253E-13 0.864E-14 0.402E+03   0.000E+00 0.000E+00 0.319E+01   0.569E-14 0.930E-13 -.148E+01
   -.169E-13 0.528E-15 -.129E+04   0.435E-13 0.423E-14 0.128E+04   0.000E+00 -.102E-19 -.708E+00   0.346E-13 -.192E-13 -.113E+01
   0.191E-12 0.111E-12 -.164E+04   -.315E-13 0.358E-14 0.164E+04   0.000E+00 0.000E+00 0.399E+00   -.287E-13 -.287E-13 -.696E+00
   0.519E-12 0.520E-12 0.561E+01   0.400E-13 0.213E-13 -.227E-12   0.108E-18 -.915E-19 -.276E+01   0.204E-12 0.524E-13 -.285E+01

 POSITION                                       TOTAL-FORCE (eV/Angst)
      0.00000      0.00000      0.00000         0.000000     -0.000000     -0.248143
      1.41000      1.41000      1.41000        -0.000000     -0.000000     -1.408922
      0.00000      0.00000      2.82000        -0.000000     -0.000000      1.133216
      1.41000      1.41000      4.23000        -0.000000      0.000000      1.665188
      0.00000      0.00000      6.64000        -0.000000     -0.000000     -4.618187
      1.41000      1.41000      7.05000        -0.000000     -0.000000      3.476848
    total drift:                                0.000000      0.000000      0.006557

  FREE ENERGIE OF THE ION-ELECTRON SYSTEM (eV)
  free  energy   TOTEN  =       -41.65412671 eV

  energy  without entropy=      -41.65348945  energy(sigma->0) =      -41.65396739