 vasp.5.3.3 18Dez12 (build Sep  7 2015 22:32:56) complex

 executed on             LinuxIFC date 2022.12.07  13:55:21

 INCAR:
 POTCAR:    PAW_PBE Fe 06Sep2000
 POTCAR:    PAW_PBE Fe 06Sep2000
   VRHFIN =Fe:  d7 s1

   TITEL  = PAW_PBE Fe 06Sep2000
   POMASS =   55.847; ZVAL   =    8.000    mass and valenz
   ENMAX  =  267.882; ENMIN  =  200.911 eV

  PAW_PBE Fe 06Sep2000                  :

 POSCAR: header
  positions in cartesian coordinates
 exchange correlation table for  LEXCH =        8
   RHO(1)=    0.500       N(1)  =     2000
   RHO(2)=  100.500       N(2)  =     4000

 ion  position               nearest neighbor table
   1  0.000  0.000  0.000-   2 2.44   2 2.44   3 2.82
   2  0.354  0.500  0.074-   1 2.44   3 2.44   1 2.44   3 2.44   4 2.82
   3  0.000  0.000  0.148-   4 2.44   2 2.44   4 2.44   2 2.44   1 2.82   5 2.82
   4  0.354  0.500  0.222-   3 2.44   3 2.44   5 2.44   5 2.44   2 2.82   6 2.82
   5  0.000  0.000  0.296-   6 2.44   6 2.44   4 2.44   4 2.44   3 2.82
   6  0.354  0.500  0.370-   5 2.44   5 2.44   4 2.82

  LATTYP: Found a simple orthorhombic cell.
 ALAT       =     2.8188897900
 B/A-ratio  =     1.4142135617
 C/A-ratio  =     6.7569950899

  Lattice vectors:

 A1 = (   0.0000000000,  -2.8188897900,   0.0000000000)
 A2 = (  -3.9865121700,   0.0000000000,   0.0000000000)
 A3 = (   0.0000000000,   0.0000000000, -19.0472244700)

Analysis of symmetry for initial positions (statically):
 Subroutine PRICEL returns:
 Original cell was already a primitive cell.

 Routine SETGRP: Setting up the symmetry group for a
 simple orthorhombic supercell.

 Subroutine GETGRP returns: Found  4 space group operations
 (whereof  2 operations were pure point group operations)
 out of a pool of  8 trial point group operations.

The static configuration has the point symmetry C_1h.
 The point group associated with its full space group is C_2h.

Analysis of symmetry for dynamics (positions and initial velocities):
 Subroutine PRICEL returns:
 Original cell was already a primitive cell.

[...]

The dynamic configuration has the point symmetry C_1h.
 The point group associated with its full space group is C_2h.

Analysis of constrained symmetry for selective dynamics:
 Subroutine PRICEL returns:
 Original cell was already a primitive cell.

 Routine SETGRP: Setting up the symmetry group for a
 simple orthorhombic supercell.

 Subroutine GETGRP returns: Found  2 space group operations
 (whereof  2 operations were pure point group operations)
 out of a pool of  8 trial point group operations.

The constrained configuration has the point symmetry C_1h.

Analysis of magnetic symmetry:

 Subroutine MAGSYM returns: Found  2 space group operations
 (whereof  2 operations were pure point group operations)
 out of a pool of  2 trial space group operations
 (whereof  2 operations were pure point group operations)
 and found also     1 'primitive' translations

The magnetic configuration has the point symmetry C_1h.

 irot  :   1
 isymop:   1   0   0
           0   1   0
           0   0   1

 gtrans:     0.0000000     0.0000000     0.0000000

 ptrans:     0.0000000     0.0000000     0.0000000
 rotmap:
 (   1->   1)  (   2->   2)  (   3->   3)  (   4->   4)  (   5->   5)
 (   6->   6)

 irot  :   2
 isymop:   1   0   0
           0  -1   0
           0   0   1

 gtrans:     0.0000000     0.0000000     0.0000000

 ptrans:     0.0000000     0.0000000     0.0000000
 rotmap:
 (   1->   1)  (   2->   2)  (   3->   3)  (   4->   4)  (   5->   5)
 (   6->   6)

 KPOINTS: K-Points

Automatic generation of k-mesh.
Space group operators:
 irot       det(A)        alpha          n_x          n_y          n_z        tau_x        tau_y        tau_z
    1     1.000000     0.000000     1.000000     0.000000     0.000000     0.000000     0.000000     0.000000
    2    -1.000000   180.000000     0.000000     1.000000     0.000000     0.000000     0.000000     0.000000

 Subroutine IBZKPT returns following result:

 Found      9 irreducible k-points:

 Following reciprocal coordinates:
            Coordinates               Weight
  0.000000  0.000000  0.000000      1.000000
  0.200000  0.000000  0.000000      2.000000
  0.400000  0.000000  0.000000      2.000000
  0.000000  0.200000  0.000000      2.000000
  0.200000  0.200000  0.000000      4.000000
  0.400000  0.200000  0.000000      4.000000
  0.000000  0.400000  0.000000      2.000000
  0.200000  0.400000  0.000000      4.000000
  0.400000  0.400000  0.000000      4.000000

 Following cartesian coordinates:
            Coordinates               Weight
  0.000000  0.000000  0.000000      1.000000
  0.050169  0.000000  0.000000      2.000000
  0.100338  0.000000  0.000000      2.000000
  0.000000  0.070950  0.000000      2.000000
  0.050169  0.070950  0.000000      4.000000
  0.100338  0.070950  0.000000      4.000000
  0.000000  0.141900  0.000000      2.000000
  0.050169  0.141900  0.000000      4.000000
  0.100338  0.141900  0.000000      4.000000

 I would recommend the setting:
   dimension x,y,z NGX =    18 NGY =   13 NGZ =   87
 SYSTEM =  Crystal
 POSCAR =  header

 Startparameter for this run:
   NWRITE =      2    write-flag & timer
   PREC   = normal    normal or accurate (medium, high low for compatibility)
   ISTART =      0    job   : 0-new  1-cont  2-samecut
   ICHARG =      2    charge: 1-file 2-atom 10-const
   ISPIN  =      2    spin polarized calculation?
   LNONCOLLINEAR =      F non collinear calculations
   LSORBIT =      F    spin-orbit coupling
   INIWAV =      1    electr: 0-lowe 1-rand  2-diag
   LASPH  =      F    aspherical Exc in radial PAW
   METAGGA=      F    non-selfconsistent MetaGGA calc.

 Electronic Relaxation 1
   ENCUT  =  350.0 eV  25.72 Ry    5.07 a.u.   6.08  4.30 29.06*2*pi/ulx,y,z
   ENINI  =  350.0     initial cutoff
   ENAUG  =  511.4 eV  augmentation charge cutoff
   NELM   =     60;   NELMIN=  4; NELMDL=-10     # of ELM steps
   EDIFF  = 0.1E-04   stopping-criterion for ELM
   LREAL  =      F    real-space projection
   NLSPLINE    = F    spline interpolate recip. space projectors
   LCOMPAT=      F    compatible to vasp.4.4
   GGA_COMPAT  = T    GGA compatible to vasp.4.4-vasp.4.6
   LMAXPAW     = -100 max onsite density
   LMAXMIX     =    2 max onsite mixed and CHGCAR
   VOSKOWN=      0    Vosko Wilk Nusair interpolation
   ROPT   =    0.00000
 Ionic relaxation
   EDIFFG = -.1E-01   stopping-criterion for IOM
   NSW    =    300    number of steps for IOM
   NBLOCK =      1;   KBLOCK =    300    inner block; outer block
   IBRION =      2    ionic relax: 0-MD 1-quasi-New 2-CG
   NFREE  =      1    steps in history (QN), initial steepest desc. (CG)
   ISIF   =      2    stress and relaxation
   IWAVPR =     11    prediction:  0-non 1-charg 2-wave 3-comb
   ISYM   =      2    0-nonsym 1-usesym 2-fastsym
   LCORR  =      T    Harris-Foulkes like correction to forces

   POTIM  = 0.5000    time-step for ionic-motion
   TEIN   =    0.0    initial temperature
   TEBEG  =    0.0;   TEEND  =   0.0 temperature during run
   SMASS  =  -3.00    Nose mass-parameter (am)
   estimated Nose-frequenzy (Omega)   =  0.10E-29 period in steps =****** mass=  -0.363E-27a.u.
   SCALEE = 1.0000    scale energy and forces
   NPACO  =    256;   APACO  = 16.0  distance and # of slots for P.C.
   PSTRESS=    0.0 pullay stress

  Mass of Ions in am
   POMASS =  55.85
  Ionic Valenz
   ZVAL   =   8.00
  Atomic Wigner-Seitz radii
  virtual crystal weights
   VCA    =   1.00
   NELECT =      48.0000    total number of electrons
   NUPDOWN=      -1.0000    fix difference up-down

 DOS related values:
   EMIN   =  10.00;   EMAX   =-10.00  energy-range for DOS
   EFERMI =   0.00
   ISMEAR =     2;   SIGMA  =   0.10  broadening in eV -4-tet -1-fermi 0-gaus

 Electronic relaxation 2 (details)
   IALGO  =     68    algorithm
   LDIAG  =      T    sub-space diagonalisation (order eigenvalues)
   LSUBROT=      T    optimize rotation matrix (better conditioning)
   TURBO    =      0    0=normal 1=particle mesh
   IRESTART =      0    0=no restart 2=restart with 2 vectors
   NREBOOT  =      0    no. of reboots
   NMIN     =      0    reboot dimension
   EREF     =   0.00    reference energy to select bands
   IMIX   =      4    mixing-type and parameters
     AMIX     =   0.40;   BMIX     =  1.00
     AMIX_MAG =   1.60;   BMIX_MAG =  1.00
     AMIN     =   0.10
     WC   =   100.;   INIMIX=   1;  MIXPRE=   1;  MAXMIX= -45

 Intra band minimization:
   WEIMIN = 0.0010     energy-eigenvalue tresh-hold
   EBREAK =  0.81E-07  absolut break condition
   DEPER  =   0.30     relativ break condition

   TIME   =   0.40     timestep for ELM

  volume/ion in A,a.u.               =      35.67       240.74
  Fermi-wavevector in a.u.,A,eV,Ry     =   0.994613  1.879547 13.459641  0.989256
  Thomas-Fermi vector in A             =   2.126577

 Write flags
   LWAVE  =      F    write WAVECAR
   LCHARG =      F    write CHGCAR
   LVTOT  =      F    write LOCPOT, total local potential
   LVHAR  =      F    write LOCPOT, Hartree potential only
   LELF   =      F    write electronic localiz. function (ELF)
   LORBIT =      0    0 simple, 1 ext, 2 COOP (PROOUT)

 Dipole corrections
   LMONO  =      F    monopole corrections only (constant potential shift)
   LDIPOL =      F    correct potential (dipole corrections)
   IDIPOL =      0    1-x, 2-y, 3-z, 4-all directions
   EPSILON=  1.0000000 bulk dielectric constant

 Exchange correlation treatment:
   GGA     =    --    GGA type
   VOSKOWN=      0    Vosko Wilk Nusair interpolation
   LHFCALC =     F    Hartree Fock is set to
   LHFONE  =     F    Hartree Fock one center treatment
   AEXX    =    0.0000 exact exchange contribution

 Linear response parameters
   LEPSILON=     F    determine dielectric tensor
   LRPA    =     F    only Hartree local field effects (RPA)
   LNABLA  =     F    use nabla operator in PAW spheres
   LVEL    =     F    velocity operator in full k-point grid
   LINTERFAST=   F  fast interpolation
   KINTER  =     0    interpolate to denser k-point grid
   CSHIFT  =0.1000    complex shift for real part using Kramers Kronig
   OMEGAMAX=  -1.0    maximum frequency
   DEG_THRESHOLD= 0.2000000E-02 threshold for treating states as degnerate
   RTIME   =    0.100 relaxation time in fs

 Orbital magnetization related:
   ORBITALMAG=     F  switch on orbital magnetization
   LCHIMAG   =     F  perturbation theory with respect to B field
   DQ        =  0.001000  dq finite difference perturbation B field

 conjugate gradient relaxation of ions
   using selective dynamics as specified on POSCAR
   WARNING: If single coordinates had been selected the selection of coordinates
            is made according to the corresponding   d i r e c t   coordinates!
            Don't support selection of single cartesian coordinates -- sorry ...
  !
 charge density and potential will be updated during run
 spin polarized calculation
 RMM-DIIS sequential band-by-band and
  variant of blocked Davidson during initial phase
 perform sub-space diagonalisation
    before iterative eigenvector-optimisation
 modified Broyden-mixing scheme, WC =      100.0
[...]

[...]

 eigenvalues of (default mixing * dielectric matrix)
  average eigenvalue GAMMA=   0.1774
  0.1774

[...]

 average (electrostatic) potential at core
  the test charge radii are     1.0103
  (the norm of the test charge is              1.0000)
       1 -49.8608       2 -49.7415       3 -49.3980       4 -49.3937       5 -49.7192
       6 -49.8246

 E-fermi :  -0.2549     XC(G=0):  -5.1685     alpha+bet : -4.3450

 spin component 1

 k-point   1 :       0.0000    0.0000    0.0000
  band No.  band energies     occupation
      1      -6.7209      1.00000
      2      -5.7824      1.00000
      3      -4.3413      1.00000
      4      -4.1834      1.00000
      5      -4.0826      1.00000
      6      -3.8491      1.00000
      7      -3.7017      1.00000
      8      -3.5109      1.00000
      9      -3.2311      1.00000
     10      -2.9639      1.00000
     11      -2.7237      1.00000
     12      -2.6894      1.00000
     13      -2.6723      1.00000
     14      -2.5198      1.00000
     15      -2.4689      1.00000
     16      -2.4480      1.00000
     17      -2.4311      1.00000
     18      -2.2831      1.00000
     19      -2.2202      1.00000
     20      -2.1564      1.00000
     21      -2.0851      1.00000
     22      -1.9648      1.00000
     23      -1.5213      1.00000
     24      -1.2793      1.00000
     25      -1.1584      1.00000
     26      -0.4552      0.99507
     27      -0.1102     -0.01500
     28      -0.1313     -0.03438
     29       0.2457      0.00000
     30       0.3483      0.00000
     31       0.4647      0.00000

[...]

 soft charge-density along one line, spin component           1
         0         1         2         3         4         5         6         7         8         9
 total charge-density along one line

[...]

------------------------ aborting loop because EDIFF is reached ----------------------------------------

  FORCE on cell =-STRESS in cart. coord.  units (eV):
  Direction    XX          YY          ZZ          XY          YZ          ZX
  Alpha Z   116.24231   116.24231   116.24231
  Ewald    7940.72436  8455.08675-10113.36222     0.00000     0.00000    95.19190
  Hartree  8928.75834  9260.81302 -8467.84961     0.00000     0.00000    55.79030
  E(xc)    -232.34989  -232.59912  -232.58494    -0.00000    -0.00000    -0.19236
  Local  -17253.89827-18102.21111 18197.13210    -0.00000    -0.00000  -151.64222
  n-local  -170.41502  -168.47370  -170.22648     2.82977    -0.36514    -0.61334
  augment   228.81244   231.77150   228.13647    -0.00000     0.00000     1.97140
  Kinetic   422.11950   421.36102   421.06979     0.49790     0.50499    -0.75373
  Fock        0.00000     0.00000     0.00000     0.00000     0.00000     0.00000
  Total     -20.00623   -18.00932   -21.44257     0.00000     0.00000    -0.24806
  in kB    -149.75215  -134.80469  -160.50352     0.00000     0.00000    -1.85683

 VOLUME and BASIS-vectors are now :
  energy-cutoff  :      350.00
  volume of cell :      214.04
      direct lattice vectors                 reciprocal lattice vectors
     3.986512170  0.000000000  0.000000000     0.250845842  0.000000000  0.000000000
     0.000000000  2.818889790  0.000000000     0.000000000  0.354749591  0.000000000
     0.000000000  0.000000000 19.047224470     0.000000000  0.000000000  0.052501088

[...]

 FORCES acting on ions
    electron-ion (+dipol)            ewald-force                    non-local-force                 convergence-correction
   0.693E+02 0.127E-06 0.136E+04   -.654E+02 -.237E-06 -.136E+04   -.251E+01 0.000E+00 -.586E+01   -.114E+01 -.243E-08 0.134E+02
   -.130E+03 -.686E-07 0.844E+03   0.130E+03 0.474E-06 -.874E+03   0.238E+01 0.000E+00 -.101E+00   -.214E+01 -.105E-07 0.292E+02
   0.131E+03 0.243E-06 0.265E+03   -.130E+03 -.474E-06 -.286E+03   -.207E+01 0.000E+00 -.742E+00   0.104E+01 0.509E-08 0.219E+02
   -.130E+03 -.838E-07 -.279E+03   0.130E+03 0.474E-06 0.286E+03   0.209E+01 0.000E+00 0.776E+00   -.171E+01 0.109E-07 -.781E+01
   0.130E+03 0.242E-06 -.852E+03   -.130E+03 -.474E-06 0.874E+03   -.228E+01 0.000E+00 0.319E-01   0.191E+01 0.704E-08 -.216E+02
   -.689E+02 0.114E-06 -.135E+04   0.654E+02 0.237E-06 0.136E+04   0.241E+01 0.000E+00 0.602E+01   0.924E+00 -.726E-08 -.138E+02
   0.126E+01 0.574E-06 -.215E+02   0.000E+00 -.366E-14 0.000E+00   0.621E-02 0.000E+00 0.132E+00   -.112E+01 0.280E-08 0.213E+02

 POSITION                                       TOTAL-FORCE (eV/Angst)
      0.00000      0.00000      0.00000         0.165422      0.000000      1.783581
      1.40944      1.40944      1.40944         0.138377      0.000000     -0.348607
      0.00000      0.00000      2.81889         0.234967      0.000000      0.094455
      1.40944      1.40944      4.22833        -0.135051      0.000000     -0.278116
      0.00000      0.00000      5.63778        -0.196326      0.000000      0.410641
      1.40944      1.40944      7.04722        -0.207389      0.000000     -1.661954
    total drift:                                0.144329      0.000001     -0.111563

  FREE ENERGIE OF THE ION-ELECTRON SYSTEM (eV)
  free  energy   TOTEN  =       -41.09050165 eV

  energy  without entropy=      -41.08802890  energy(sigma->0) =      -41.08988346

[...]

 d Force = 0.1273872E+00[ 0.102E+00, 0.153E+00]  d Energy = 0.9495811E+00-0.822E+00
 d Force =-0.9897693E+02[-0.993E+02,-0.987E+02]  d Ewald  =-0.9899165E+02 0.147E-01

 Steepest descent step on ions:
 trial-energy change:   -0.949581  1 .order   -0.127387   -0.153025   -0.101749
  (g-gl).g = 0.153E+00      g.g   = 0.153E+00  gl.gl    = 0.000E+00
 g(Force)  = 0.153E+00   g(Stress)= 0.000E+00 ortho     = 0.000E+00
 gamma     =   0.00000
 trial     =   1.00000
 opt step  =   2.98434  (harmonic =   2.98434) maximal distance =0.05912111
 next E    =   -41.318842   (d E  =  -0.22834)

[...]

 d Force = 0.9954435E-01[-0.282E-02, 0.202E+00]  d Energy = 0.6019816E+00-0.502E+00
 d Force =-0.1976755E+03[-0.198E+03,-0.197E+03]  d Ewald  =-0.1978088E+03 0.133E+00

[...]

 Conjugate gradient step on ions:
 trial-energy change:   -0.108565  1 .order   -0.108405   -0.116363   -0.100447
  (g-gl).g = 0.127E+00      g.g   = 0.125E+00  gl.gl    = 0.153E+00
 g(Force)  = 0.125E+00   g(Stress)= 0.000E+00 ortho     =-0.142E-02
 gamma     =   0.82912
 trial     =   0.93630
 opt step  =   3.74519  (harmonic =   6.84536) maximal distance =0.09615277
 next E    =   -43.067436   (d E  =  -0.42537)

[...]

 d Force =-0.2490322E-01[-0.357E+00, 0.307E+00]  d Energy = 0.4869619E-01-0.736E-01
 d Force =-0.6952165E+03[-0.724E+03,-0.666E+03]  d Ewald  =-0.6936742E+03-0.154E+01

[...]

 d Force = 0.5897360E-01[-0.739E-01, 0.192E+00]  d Energy = 0.5162579E-01 0.735E-02
 d Force = 0.3802094E+03[ 0.371E+03, 0.389E+03]  d Ewald  = 0.3800224E+03 0.187E+00

[...]

 d Force = 0.1265854E+00[ 0.807E-01, 0.172E+00]  d Energy = 0.1366085E+00-0.100E-01
 d Force = 0.2523915E+02[ 0.240E+02, 0.265E+02]  d Ewald  = 0.2521336E+02 0.258E-01

 Conjugate gradient step on ions:
 trial-energy change:   -0.136609  1 .order   -0.126585   -0.172440   -0.080730
  (g-gl).g = 0.187E-01      g.g   = 0.564E-01  gl.gl    = 0.827E-01
 g(Force)  = 0.564E-01   g(Stress)= 0.000E+00 ortho     = 0.985E-02
 gamma     =   0.22650
 trial     =   2.94210
 opt step  =   4.26919  (harmonic =   5.53197) maximal distance =0.08093231
 next E    =   -43.446795   (d E  =  -0.15574)

[...]

 d Force = 0.1205136E-03[ 0.216E-04, 0.219E-03]  d Energy =-0.1002967E-03 0.221E-03
 d Force = 0.5302874E+01[ 0.530E+01, 0.531E+01]  d Ewald  = 0.5302877E+01-0.306E-05

[...]

 d Force = 0.4512463E-04[-0.659E-06, 0.909E-04]  d Energy = 0.1542287E-04 0.297E-04
 d Force = 0.2817343E+00[ 0.281E+00, 0.283E+00]  d Ewald  = 0.2817344E+00-0.909E-08

[...]

 d Force = 0.1300645E-03[ 0.632E-04, 0.197E-03]  d Energy =-0.1634939E-03 0.294E-03
 d Force = 0.1236569E+02[ 0.124E+02, 0.124E+02]  d Ewald  = 0.1236570E+02-0.403E-05

[...]

 d Force = 0.5128099E-05[-0.196E-04, 0.298E-04]  d Energy =-0.9795244E-05 0.149E-04
 d Force = 0.5831773E+01[ 0.583E+01, 0.583E+01]  d Ewald  = 0.5831773E+01-0.419E-06

[...]

 d Force = 0.7321756E-04[-0.157E-03, 0.304E-03]  d Energy =-0.5619793E-04 0.129E-03
 d Force = 0.9914894E+01[ 0.991E+01, 0.992E+01]  d Ewald  = 0.9914897E+01-0.362E-05

[...]

 d Force = 0.4532281E-05[-0.298E-04, 0.388E-04]  d Energy =-0.3064339E-04 0.352E-04
 d Force =-0.4011444E+01[-0.401E+01,-0.401E+01]  d Ewald  =-0.4011444E+01 0.926E-07

[...]

 d Force = 0.5609580E-05[ 0.328E-05, 0.794E-05]  d Energy = 0.1266699E-04-0.706E-05
 d Force = 0.1135386E+01[ 0.114E+01, 0.114E+01]  d Ewald  = 0.1135386E+01-0.229E-08

[...]

 d Force = 0.6166847E-04[-0.209E-04, 0.144E-03]  d Energy = 0.3354894E-04 0.281E-04
 d Force =-0.6469105E+01[-0.647E+01,-0.647E+01]  d Ewald  =-0.6469105E+01-0.174E-06

[...]

 d Force = 0.7323169E-04[ 0.600E-04, 0.865E-04]  d Energy =-0.1250946E-04 0.857E-04
 d Force =-0.4262566E+01[-0.426E+01,-0.426E+01]  d Ewald  =-0.4262566E+01 0.167E-06

 Conjugate gradient step on ions:
 trial-energy change:    0.000013  1 .order   -0.000073   -0.000086   -0.000060
  (g-gl).g = 0.651E-04      g.g   = 0.574E-04  gl.gl    = 0.593E-04
 g(Force)  = 0.574E-04   g(Stress)= 0.000E+00 ortho     =-0.543E-05
 gamma     =   1.09866
 trial     =   1.68132
 opt step  =   5.49395  (harmonic =   5.49395) maximal distance =0.00323686
 next E    =   -43.541766   (d E  =  -0.00014)

[...]

 FEWALD executed in parallel

[...]

 eigenvalue-minimisations  :   771
 total energy-change (2. order) :-0.1004351E-04  (-0.6550981E-05)
 number of electron      48.0000138 magnetization       6.4233404
 augmentation part       25.1222353 magnetization       4.8387808

 Broyden mixing:
  rms(total) = 0.18551E-02    rms(broyden)= 0.18515E-02
  rms(prec ) = 0.21565E-02
  weight for this iteration     100.00

 eigenvalues of (default mixing * dielectric matrix)
  average eigenvalue GAMMA=   0.3520
  0.6886  0.4650  0.1370  0.1175

[...]

----------------------------------------- Iteration   45(   6)  ---------------------------------------

 eigenvalue-minimisations  :   656
 total energy-change (2. order) : 0.2133081E-05  (-0.1743478E-05)
 number of electron      48.0000138 magnetization       6.4233404
 augmentation part       25.1222353 magnetization       4.8387808

 Free energy of the ion-electron system (eV)
  alpha Z        PSCENC =       116.24230980
  Ewald energy   TEWEN  =      8005.82571137
  -1/2 Hartree   DENC   =    -11570.30382980
  -exchange  EXHF       =         0.00000000
  -V(xc)+E(xc)   XCENC  =        23.89807861
  PAW double counting   =      3838.61758328    -3891.54270363
  entropy T*S    EENTRO =         0.00322208
  eigenvalues    EBANDS =      -132.05115222
  atomic energy  EATOM  =      3565.76896863
  free energy    TOTEN  =       -43.54181188 eV

  energy without entropy =      -43.54503396  energy(sigma->0) =      -43.54261740

 average (electrostatic) potential at core
  the test charge radii are     1.0103
  (the norm of the test charge is              1.0000)
       1 -50.0375       2 -49.9534       3 -49.9973       4 -49.9843       5 -49.8999
       6 -50.0160

 E-fermi :  -0.4408     XC(G=0):  -5.7290     alpha+bet : -4.3450

[...]

 spin component 2

[...]

 k-point   9 :       0.4000    0.4000    0.0000
  band No.  band energies     occupation
      1      -4.5387      1.00000
      2      -4.2061      1.00000
      3      -3.9754      1.00000
      4      -3.7603      1.00000
      5      -3.4350      1.00000
      6      -3.2854      1.00000
      7      -3.1403      1.00000
      8      -3.0580      1.00000
      9      -2.6354      1.00000
     10      -2.3933      1.00000
     11      -2.2579      1.00000
     12      -2.1613      1.00000
     13      -1.6851      1.00000
     14      -1.6283      1.00000
     15      -1.5203      1.00000
     16      -1.3135      1.00000
     17      -1.0723      1.00000
     18      -0.9709      1.00000
     19      -0.8294      1.00000
     20      -0.7445      0.99975
     21      -0.3235     -0.04016
     22      -0.2139      0.00373
     23      -0.0632      0.00000
     24       0.0338      0.00000
     25       0.1058      0.00000
     26       0.3645      0.00000
     27       0.4367      0.00000
     28       0.5459      0.00000
     29       0.6311      0.00000
     30       0.9534      0.00000
     31       1.0232      0.00000

[...]

 soft charge-density along one line, spin component           2
         0         1         2         3         4         5         6         7         8         9
 total charge-density along one line

------------------------ aborting loop because EDIFF is reached ----------------------------------------

  FORCE on cell =-STRESS in cart. coord.  units (eV):
  Direction    XX          YY          ZZ          XY          YZ          ZX
  Alpha Z   116.24231   116.24231   116.24231
  Ewald   10030.83904 10128.36387-12153.37892     0.00000     0.00000    64.44537
  Hartree 11017.10207 11085.88362-10532.46865     0.00000     0.00000    34.66549
  E(xc)    -234.89642  -234.78456  -235.15619    -0.00000    -0.00000    -0.21971
  Local  -21436.35987-21604.63415 22313.34717    -0.00000    -0.00000   -99.59478
  n-local  -162.83665  -162.42118  -161.94828     2.39759    -0.03596     0.58516
  augment   234.84467   235.42799   230.13409    -0.00000    -0.00000     0.65591
  Kinetic   422.24639   421.73014   421.54426     0.74908     0.14781    -0.73736
  Fock        0.00000     0.00000     0.00000     0.00000     0.00000     0.00000
  Total     -12.81844   -14.19195    -1.68422     0.00000     0.00000    -0.19992
  in kB     -95.94954  -106.23067   -12.60682     0.00000     0.00000    -1.49647

 VOLUME and BASIS-vectors are now :
  energy-cutoff  :      350.00
  volume of cell :      214.04
      direct lattice vectors                 reciprocal lattice vectors
     3.986512170  0.000000000  0.000000000     0.250845842  0.000000000  0.000000000
     0.000000000  2.818889790  0.000000000     0.000000000  0.354749591  0.000000000
     0.000000000  0.000000000 19.047224470     0.000000000  0.000000000  0.052501088

  length of vectors
     3.986512170  2.818889790 19.047224470     0.250845842  0.354749591  0.052501088

 FORCES acting on ions
    electron-ion (+dipol)            ewald-force                    non-local-force                 convergence-correction
   0.538E+02 0.124E-06 0.148E+04   -.515E+02 -.239E-06 -.147E+04   -.223E+01 0.000E+00 -.623E+01   -.651E-02 -.184E-10 -.155E-01
   -.657E+02 -.174E-07 0.942E+03   0.643E+02 0.436E-06 -.943E+03   0.134E+01 0.000E+00 -.221E+00   -.395E-03 -.482E-10 0.448E-01
   0.898E+01 0.208E-06 0.333E+03   -.914E+01 -.400E-06 -.332E+03   0.160E+00 0.000E+00 -.124E+01   -.697E-02 -.324E-10 0.800E-01
   0.593E+01 0.104E-06 -.290E+03   -.551E+01 0.359E-06 0.289E+03   -.412E+00 0.000E+00 0.101E+01   -.937E-02 -.722E-10 0.136E+00
   0.687E+01 0.210E-06 -.100E+04   -.673E+01 -.402E-06 0.100E+04   -.158E+00 0.000E+00 -.744E+00   0.166E-01 0.313E-10 0.110E+00
   -.898E+01 0.146E-06 -.146E+04   0.860E+01 0.245E-06 0.146E+04   0.397E+00 0.000E+00 0.626E+01   -.218E-01 -.403E-11 0.449E-01
   0.929E+00 0.774E-06 0.772E+00   -.160E-13 -.366E-14 0.000E+00   -.900E+00 0.000E+00 -.117E+01   -.284E-01 -.144E-09 0.400E+00

 POSITION                                       TOTAL-FORCE (eV/Angst)
      0.00000      0.00000      0.00000         0.129714      0.000000      1.060393
      1.40944      1.40944      1.40944        -0.119617      0.000000     -1.049479
     -0.56219      0.00000      2.59071        -0.005146      0.000000     -0.003777
      1.49024      1.40944      3.76769        -0.002817      0.000000     -0.002760
     -0.56343      0.00000      5.12704         0.005216      0.000000     -0.005995
      1.35249      1.40944      6.14196        -0.007349      0.000000      0.001618
    total drift:                                0.000629      0.000001     -0.000841

  FREE ENERGIE OF THE ION-ELECTRON SYSTEM (eV)
  free  energy   TOTEN  =       -43.54181188 eV

  energy  without entropy=      -43.54503396  energy(sigma->0) =      -43.54261740

 d Force = 0.4526126E-04[ 0.253E-04, 0.652E-04]  d Energy = 0.3005009E-04 0.152E-04
 d Force =-0.1639738E+00[-0.165E+00,-0.163E+00]  d Ewald  =-0.1639735E+00-0.278E-06

 Conjugate gradient step on ions:
 trial-energy change:   -0.000030  1 .order   -0.000045   -0.000065   -0.000025
  (g-gl).g = 0.319E-05      g.g   = 0.265E-04  gl.gl    = 0.574E-04
 g(Force)  = 0.265E-04   g(Stress)= 0.000E+00 ortho     = 0.269E-05
 gamma     =   0.05567
 trial     =   2.44384
 opt step  =   3.99880  (harmonic =   3.99880) maximal distance =0.00216312
 next E    =   -43.541835   (d E  =  -0.00005)

 reached required accuracy - stopping structural energy minimisation