 vasp.5.3.3 18Dez12 (build Sep  7 2015 22:32:56) complex

 executed on             LinuxIFC date 2022.12.22  18:29:16

 INCAR:
 POTCAR:    PAW_PBE Nb_pv 08Apr2002
 POTCAR:    PAW_PBE Nb_pv 08Apr2002
   VRHFIN =Nb: 4p5s4d

   TITEL  = PAW_PBE Nb_pv 08Apr2002
   POMASS =   92.000; ZVAL   =   11.000    mass and valenz
   ENMAX  =  208.608; ENMIN  =  156.456 eV

  PAW_PBE Nb_pv 08Apr2002               :

 POSCAR: Nb2
  positions in direct lattice
 exchange correlation table for  LEXCH =        8
   RHO(1)=    0.500       N(1)  =     2000
   RHO(2)=  100.500       N(2)  =     4000

 ion  position               nearest neighbor table
   1  0.000  0.000  0.000-   2 2.88   2 2.88   2 2.88   2 2.88   2 2.88   2 2.88   2 2.88   2 2.88

   2  0.500  0.500  0.500-   1 2.88   1 2.88   1 2.88   1 2.88   1 2.88   1 2.88   1 2.88   1 2.88

  LATTYP: Found a simple cubic cell.
 ALAT       =     3.3205200000

  Lattice vectors:

 A1 = (   3.3205200000,   0.0000000000,   0.0000000000)
 A2 = (   0.0000000000,   3.3205200000,   0.0000000000)
 A3 = (   0.0000000000,   0.0000000000,   3.3205200000)

Analysis of symmetry for initial positions (statically):
 Subroutine PRICEL returns following result:

  LATTYP: Found a body centered cubic cell.
 ALAT       =     3.3205200000

[...]

   2 primitive cells build up your supercell.

 Routine SETGRP: Setting up the symmetry group for a
 simple cubic supercell.

 Subroutine GETGRP returns: Found 48 space group operations
 (whereof 48 operations were pure point group operations)
 out of a pool of 48 trial point group operations.

The static configuration has the point symmetry O_h .

Analysis of symmetry for dynamics (positions and initial velocities):
 Subroutine PRICEL returns following result:

[...]

The dynamic configuration has the point symmetry O_h .

Analysis of constrained symmetry for selective dynamics:
 Subroutine PRICEL returns following result:

  LATTYP: Found a body centered cubic cell.
 ALAT       =     3.3205200000

  Lattice vectors:

 A1 = (   1.6602600000,   1.6602600000,   1.6602600000)
 A2 = (   1.6602600000,  -1.6602600000,  -1.6602600000)
 A3 = (  -1.6602600000,   1.6602600000,  -1.6602600000)

   2 primitive cells build up your supercell.

 Routine SETGRP: Setting up the symmetry group for a
 simple cubic supercell.

 Subroutine GETGRP returns: Found 48 space group operations
 (whereof 48 operations were pure point group operations)
 out of a pool of 48 trial point group operations.

The constrained configuration has the point symmetry O_h .

Analysis of magnetic symmetry:

 Subroutine MAGSYM returns: Found 48 space group operations
 (whereof 48 operations were pure point group operations)
 out of a pool of 48 trial space group operations
 (whereof 48 operations were pure point group operations)
 and found also     2 'primitive' translations

The magnetic configuration has the point symmetry O_h .

 irot  :   1
 isymop:   1   0   0
           0   1   0
           0   0   1

 gtrans:     0.0000000     0.0000000     0.0000000

 ptrans:     0.0000000     0.0000000     0.0000000
 rotmap:
 (   1->   1)  (   2->   2)

[...]

 irot  :  48
 isymop:   0   0   1
           0   1   0
           1   0   0

 gtrans:     0.0000000     0.0000000     0.0000000

[...]

 ptrans:     0.5000000     0.5000000     0.5000000
 rotmap:
 (   1->   2)  (   2->   1)

 KPOINTS: K-Points

Automatic generation of k-mesh.
Space group operators:
 irot       det(A)        alpha          n_x          n_y          n_z        tau_x        tau_y        tau_z
    1     1.000000     0.000000     1.000000     0.000000     0.000000     0.000000     0.000000     0.000000
    2    -1.000000     0.000000     1.000000     0.000000     0.000000     0.000000     0.000000     0.000000
    3     1.000000   120.000000    -0.577350    -0.577350    -0.577350     0.000000     0.000000     0.000000
    4    -1.000000   120.000000    -0.577350    -0.577350    -0.577350     0.000000     0.000000     0.000000
    5     1.000000   120.000000     0.577350     0.577350     0.577350     0.000000     0.000000     0.000000
    6    -1.000000   120.000000     0.577350     0.577350     0.577350     0.000000     0.000000     0.000000
    7     1.000000    90.000000     0.000000     0.000000    -1.000000     0.000000     0.000000     0.000000
    8    -1.000000    90.000000     0.000000     0.000000    -1.000000     0.000000     0.000000     0.000000
    9     1.000000   180.000000     0.000000    -0.707107    -0.707107     0.000000     0.000000     0.000000
   10    -1.000000   180.000000     0.000000    -0.707107    -0.707107     0.000000     0.000000     0.000000
   11     1.000000    90.000000     0.000000     1.000000     0.000000     0.000000     0.000000     0.000000
   12    -1.000000    90.000000     0.000000     1.000000     0.000000     0.000000     0.000000     0.000000
   13     1.000000   180.000000    -0.000000    -0.000000     1.000000     0.000000     0.000000     0.000000
   14    -1.000000   180.000000    -0.000000    -0.000000     1.000000     0.000000     0.000000     0.000000
   15     1.000000   120.000000    -0.577350     0.577350     0.577350     0.000000     0.000000     0.000000
   16    -1.000000   120.000000    -0.577350     0.577350     0.577350     0.000000     0.000000     0.000000
   17     1.000000   120.000000    -0.577350     0.577350    -0.577350     0.000000     0.000000     0.000000
   18    -1.000000   120.000000    -0.577350     0.577350    -0.577350     0.000000     0.000000     0.000000
   19     1.000000    90.000000    -0.000000    -0.000000     1.000000     0.000000     0.000000     0.000000
   20    -1.000000    90.000000    -0.000000    -0.000000     1.000000     0.000000     0.000000     0.000000
   21     1.000000    90.000000    -1.000000     0.000000    -0.000000     0.000000     0.000000     0.000000
   22    -1.000000    90.000000    -1.000000     0.000000    -0.000000     0.000000     0.000000     0.000000
   23     1.000000   180.000000    -0.707107     0.000000    -0.707107     0.000000     0.000000     0.000000
   24    -1.000000   180.000000    -0.707107     0.000000    -0.707107     0.000000     0.000000     0.000000
   25     1.000000   120.000000     0.577350    -0.577350     0.577350     0.000000     0.000000     0.000000
   26    -1.000000   120.000000     0.577350    -0.577350     0.577350     0.000000     0.000000     0.000000
   27     1.000000   120.000000    -0.577350    -0.577350     0.577350     0.000000     0.000000     0.000000
   28    -1.000000   120.000000    -0.577350    -0.577350     0.577350     0.000000     0.000000     0.000000
   29     1.000000   180.000000     1.000000    -0.000000     0.000000     0.000000     0.000000     0.000000
   30    -1.000000   180.000000     1.000000    -0.000000     0.000000     0.000000     0.000000     0.000000
   31     1.000000    90.000000    -0.000000    -1.000000     0.000000     0.000000     0.000000     0.000000
   32    -1.000000    90.000000    -0.000000    -1.000000     0.000000     0.000000     0.000000     0.000000
   33     1.000000   180.000000     0.707107     0.707107     0.000000     0.000000     0.000000     0.000000
   34    -1.000000   180.000000     0.707107     0.707107     0.000000     0.000000     0.000000     0.000000
   35     1.000000    90.000000     1.000000    -0.000000    -0.000000     0.000000     0.000000     0.000000
   36    -1.000000    90.000000     1.000000    -0.000000    -0.000000     0.000000     0.000000     0.000000
   37     1.000000   120.000000     0.577350    -0.577350    -0.577350     0.000000     0.000000     0.000000
   38    -1.000000   120.000000     0.577350    -0.577350    -0.577350     0.000000     0.000000     0.000000
   39     1.000000   180.000000     0.000000     1.000000     0.000000     0.000000     0.000000     0.000000
   40    -1.000000   180.000000     0.000000     1.000000     0.000000     0.000000     0.000000     0.000000
   41     1.000000   120.000000     0.577350     0.577350    -0.577350     0.000000     0.000000     0.000000
   42    -1.000000   120.000000     0.577350     0.577350    -0.577350     0.000000     0.000000     0.000000
   43     1.000000   180.000000    -0.000000    -0.707107     0.707107     0.000000     0.000000     0.000000
   44    -1.000000   180.000000    -0.000000    -0.707107     0.707107     0.000000     0.000000     0.000000
   45     1.000000   180.000000     0.707107    -0.707107     0.000000     0.000000     0.000000     0.000000
   46    -1.000000   180.000000     0.707107    -0.707107     0.000000     0.000000     0.000000     0.000000
   47     1.000000   180.000000     0.707107    -0.000000    -0.707107     0.000000     0.000000     0.000000
   48    -1.000000   180.000000     0.707107    -0.000000    -0.707107     0.000000     0.000000     0.000000

 Subroutine IBZKPT returns following result:

 Found     20 irreducible k-points:

 Following reciprocal coordinates:
            Coordinates               Weight
  0.000000  0.000000  0.000000      1.000000
  0.142857 -0.000000  0.000000      6.000000
  0.285714  0.000000  0.000000      6.000000
  0.428571 -0.000000  0.000000      6.000000
  0.142857  0.142857  0.000000     12.000000
  0.285714  0.142857  0.000000     24.000000
  0.428571  0.142857  0.000000     24.000000
  0.285714  0.285714  0.000000     12.000000
  0.428571  0.285714  0.000000     24.000000
  0.428571  0.428571  0.000000     12.000000
  0.142857  0.142857  0.142857      8.000000
  0.285714  0.142857  0.142857     24.000000
  0.428571  0.142857  0.142857     24.000000
  0.285714  0.285714  0.142857     24.000000
  0.428571  0.285714  0.142857     48.000000
  0.428571  0.428571  0.142857     24.000000
  0.285714  0.285714  0.285714      8.000000
  0.428571  0.285714  0.285714     24.000000
  0.428571  0.428571  0.285714     24.000000
  0.428571  0.428571  0.428571      8.000000

 Following cartesian coordinates:
            Coordinates               Weight
  0.000000  0.000000  0.000000      1.000000
  0.043023 -0.000000  0.000000      6.000000
  0.086045 -0.000000  0.000000      6.000000
  0.129068 -0.000000  0.000000      6.000000
  0.043023  0.043023  0.000000     12.000000
  0.086045  0.043023  0.000000     24.000000
  0.129068  0.043023  0.000000     24.000000
  0.086045  0.086045  0.000000     12.000000
  0.129068  0.086045  0.000000     24.000000
  0.129068  0.129068  0.000000     12.000000
  0.043023  0.043023  0.043023      8.000000
  0.086045  0.043023  0.043023     24.000000
  0.129068  0.043023  0.043023     24.000000
  0.086045  0.086045  0.043023     24.000000
  0.129068  0.086045  0.043023     48.000000
  0.129068  0.129068  0.043023     24.000000
  0.086045  0.086045  0.086045      8.000000
  0.129068  0.086045  0.086045     24.000000
  0.129068  0.129068  0.086045     24.000000
  0.129068  0.129068  0.129068      8.000000

 I would recommend the setting:
   dimension x,y,z NGX =    15 NGY =   15 NGZ =   15
 SYSTEM =  Crystal
 POSCAR =  Nb2

 Startparameter for this run:
   NWRITE =      2    write-flag & timer
   PREC   = normal    normal or accurate (medium, high low for compatibility)
   ISTART =      0    job   : 0-new  1-cont  2-samecut
[...]
 use partial core corrections
 calculate Harris-corrections to forces
   (improved forces if not selfconsistent)
 use gradient corrections
 use of overlap-Matrix (Vanderbilt PP)
 Methfessel and Paxton  Order N= 2 SIGMA  =   0.10

  energy-cutoff  :      350.00
  volume of cell :       36.61
      direct lattice vectors                 reciprocal lattice vectors
     3.320520000  0.000000000  0.000000000     0.301157650 -0.000000000  0.000000000
     0.000000000  3.320520000  0.000000000     0.000000000  0.301157650  0.000000000
     0.000000000  0.000000000  3.320520000    -0.000000000 -0.000000000  0.301157650

  length of vectors
     3.320520000  3.320520000  3.320520000     0.301157650  0.301157650  0.301157650

 k-points in units of 2pi/SCALE and weight: K-Points
   0.00000000  0.00000000  0.00000000       0.003
   0.04302252 -0.00000000  0.00000000       0.017
   0.08604504 -0.00000000  0.00000000       0.017
   0.12906756 -0.00000000  0.00000000       0.017
   0.04302252  0.04302252  0.00000000       0.035
   0.08604504  0.04302252  0.00000000       0.070
   0.12906756  0.04302252  0.00000000       0.070
   0.08604504  0.08604504  0.00000000       0.035
   0.12906756  0.08604504  0.00000000       0.070
   0.12906756  0.12906756  0.00000000       0.035
   0.04302252  0.04302252  0.04302252       0.023
   0.08604504  0.04302252  0.04302252       0.070
   0.12906756  0.04302252  0.04302252       0.070
   0.08604504  0.08604504  0.04302252       0.070
   0.12906756  0.08604504  0.04302252       0.140
   0.12906756  0.12906756  0.04302252       0.070
   0.08604504  0.08604504  0.08604504       0.023
   0.12906756  0.08604504  0.08604504       0.070
   0.12906756  0.12906756  0.08604504       0.070
   0.12906756  0.12906756  0.12906756       0.023

 k-points in reciprocal lattice and weights: K-Points
   0.00000000  0.00000000  0.00000000       0.003
   0.14285714 -0.00000000  0.00000000       0.017
   0.28571429  0.00000000  0.00000000       0.017
   0.42857143 -0.00000000  0.00000000       0.017
   0.14285714  0.14285714  0.00000000       0.035
   0.28571429  0.14285714  0.00000000       0.070
   0.42857143  0.14285714  0.00000000       0.070
   0.28571429  0.28571429  0.00000000       0.035
   0.42857143  0.28571429  0.00000000       0.070
   0.42857143  0.42857143  0.00000000       0.035
   0.14285714  0.14285714  0.14285714       0.023
   0.28571429  0.14285714  0.14285714       0.070
   0.42857143  0.14285714  0.14285714       0.070
   0.28571429  0.28571429  0.14285714       0.070
   0.42857143  0.28571429  0.14285714       0.140
   0.42857143  0.42857143  0.14285714       0.070
   0.28571429  0.28571429  0.28571429       0.023
   0.42857143  0.28571429  0.28571429       0.070
   0.42857143  0.42857143  0.28571429       0.070
   0.42857143  0.42857143  0.42857143       0.023

 position of ions in fractional coordinates (direct lattice)
   0.00000000  0.00000000  0.00000000
   0.50000000  0.50000000  0.50000000

 position of ions in cartesian coordinates  (Angst):
   0.00000000  0.00000000  0.00000000
   1.66026000  1.66026000  1.66026000

 k-point  1 :   0.0000 0.0000 0.0000  plane waves:     515
 k-point  2 :   0.1429-0.0000 0.0000  plane waves:     530
 k-point  3 :   0.2857 0.0000 0.0000  plane waves:     542
 k-point  4 :   0.4286-0.0000 0.0000  plane waves:     538
 k-point  5 :   0.1429 0.1429 0.0000  plane waves:     533
 k-point  6 :   0.2857 0.1429 0.0000  plane waves:     533
 k-point  7 :   0.4286 0.1429 0.0000  plane waves:     547
 k-point  8 :   0.2857 0.2857 0.0000  plane waves:     547
 k-point  9 :   0.4286 0.2857 0.0000  plane waves:     546
 k-point 10 :   0.4286 0.4286 0.0000  plane waves:     556
 k-point 11 :   0.1429 0.1429 0.1429  plane waves:     543
 k-point 12 :   0.2857 0.1429 0.1429  plane waves:     540
 k-point 13 :   0.4286 0.1429 0.1429  plane waves:     555
 k-point 14 :   0.2857 0.2857 0.1429  plane waves:     541
 k-point 15 :   0.4286 0.2857 0.1429  plane waves:     547
 k-point 16 :   0.4286 0.4286 0.1429  plane waves:     542
 k-point 17 :   0.2857 0.2857 0.2857  plane waves:     546
 k-point 18 :   0.4286 0.2857 0.2857  plane waves:     555
 k-point 19 :   0.4286 0.4286 0.2857  plane waves:     547
 k-point 20 :   0.4286 0.4286 0.4286  plane waves:     543

 maximum and minimum number of plane-waves per node :       556      515

 maximum number of plane-waves:       556
 maximum index in each direction:
   IXMAX=    5   IYMAX=    5   IZMAX=    5
   IXMIN=   -5   IYMIN=   -5   IZMIN=   -5

 WARNING: aliasing errors must be expected set NGX to  22 to avoid them
 WARNING: aliasing errors must be expected set NGY to  22 to avoid them
 WARNING: aliasing errors must be expected set NGZ to  22 to avoid them
 aliasing errors are usually negligible using standard VASP settings
 and one can safely disregard these warnings

 serial   3D FFT for wavefunctions
 parallel 3D FFT for charge:
    minimum data exchange during FFTs selected (reduces bandwidth)

 Broyden mixing: mesh for mixing (old mesh)
   NGX = 11   NGY = 11   NGZ = 11
  (NGX  = 32   NGY  = 32   NGZ  = 32)
  gives a total of   1331 points

 initial charge density was supplied:
 charge density of overlapping atoms calculated
 number of electron      22.0000000 magnetization       2.0000000
 keeping initial charge density in first step

 Maximum index for augmentation-charges         6667 (set IRDMAX)

 First call to EWALD:  gamma=   0.534
 Maximum number of real-space cells 3x 3x 3
 Maximum number of reciprocal cells 3x 3x 3

 FEWALD executed in parallel

----------------------------------------- Iteration    1(   1)  ---------------------------------------

 eigenvalue-minimisations  :  1464
 total energy-change (2. order) : 0.1536801E+03  (-0.9904895E+03)
 number of electron      22.0000000 magnetization       2.0000000
 augmentation part       22.0000000 magnetization       2.0000000

 Free energy of the ion-electron system (eV)
  alpha Z        PSCENC =       247.30360481
  Ewald energy   TEWEN  =     -1909.61255388
  -1/2 Hartree   DENC   =      -279.14467189
  -exchange  EXHF       =         0.00000000
  -V(xc)+E(xc)   XCENC  =        52.72693376
  PAW double counting   =      1671.23129109    -1639.32392863
  entropy T*S    EENTRO =        -0.00039678
  eigenvalues    EBANDS =       -76.27354675
  atomic energy  EATOM  =      2086.77339417
  free energy    TOTEN  =       153.68012591 eV

  energy without entropy =      153.68052269  energy(sigma->0) =      153.68022510

[...]

 eigenvalue-minimisations  :  1472
 total energy-change (2. order) :-0.1675680E+03  (-0.1652703E+03)
 number of electron      22.0000000 magnetization       2.0000000
 augmentation part       22.0000000 magnetization       2.0000000

[...]

 Broyden mixing:
  rms(total) = 0.24429E+01    rms(broyden)= 0.24429E+01
  rms(prec ) = 0.28730E+01
  weight for this iteration     100.00

[...]

 eigenvalues of (default mixing * dielectric matrix)
  average eigenvalue GAMMA=   1.4104
  1.4104

[...]

 average (electrostatic) potential at core
  the test charge radii are     1.2125
  (the norm of the test charge is              1.0000)
       1 -35.1965       2 -35.1965

 E-fermi :   4.7999     XC(G=0): -12.3570     alpha+bet :-12.7796

 spin component 1

 k-point   1 :       0.0000    0.0000    0.0000
  band No.  band energies     occupation
      1     -25.8067      1.00000
      2     -25.8067      1.00000
      3     -25.8067      1.00000
      4     -24.9259      1.00000
      5     -24.9259      1.00000
      6     -24.9259      1.00000
      7      -1.0550      1.00000
      8       1.2020      1.00000
      9       1.2020      1.00000
     10       5.1924      0.00000
     11       5.1924      0.00000
     12       5.1924      0.00000
     13       8.0424      0.00000
     14       8.0424      0.00000
     15      10.3074      0.00000
     16      10.3074      0.00000

[...]

 soft charge-density along one line, spin component           1
         0         1         2         3         4         5         6         7         8         9
 total charge-density along one line

[...]

------------------------ aborting loop because EDIFF is reached ----------------------------------------

  FORCE on cell =-STRESS in cart. coord.  units (eV):
  Direction    XX          YY          ZZ          XY          YZ          ZX
  Alpha Z   247.30360   247.30360   247.30360
  Ewald    -636.53747  -636.53747  -636.53747    -0.00000    -0.00000    -0.00000
  Hartree    81.86471    81.86471    81.86471    -0.00000    -0.00000    -0.00000
  E(xc)     -95.01852   -95.01852   -95.01852     0.00000    -0.00000     0.00000
  Local     203.63131   203.63131   203.63131     0.00000    -0.00000    -0.00000
  n-local   -88.44191   -84.10518   -78.38235     2.93718    -1.11167     0.46077
  augment    53.68287    53.68287    53.68287     0.00000    -0.00000     0.00000
  Kinetic   219.61862   225.67501   241.53046     1.91732    -2.11445     0.39714
  Fock        0.00000     0.00000     0.00000     0.00000     0.00000     0.00000
  Total       0.22473     0.22473     0.22473     0.00000    -0.00000     0.00000
  in kB       9.83471     9.83471     9.83471     0.00000    -0.00000     0.00000

 VOLUME and BASIS-vectors are now :
  energy-cutoff  :      350.00
  volume of cell :       36.61
      direct lattice vectors                 reciprocal lattice vectors
     3.320520000  0.000000000  0.000000000     0.301157650 -0.000000000  0.000000000
     0.000000000  3.320520000  0.000000000     0.000000000  0.301157650  0.000000000
     0.000000000  0.000000000  3.320520000    -0.000000000 -0.000000000  0.301157650

[...]

 FORCES acting on ions
    electron-ion (+dipol)            ewald-force                    non-local-force                 convergence-correction
   0.248E-15 -.301E-16 -.161E-15   -.235E-14 0.149E-14 -.290E-14   0.405E-24 0.000E+00 -.310E-24   -.232E-14 0.512E-14 0.160E-15
   0.553E-13 0.764E-12 0.121E-12   0.359E-14 -.186E-14 0.336E-14   -.717E-24 0.000E+00 0.827E-24   -.778E-14 0.289E-14 0.116E-14
   0.556E-13 0.764E-12 0.121E-12   0.124E-14 -.369E-15 0.458E-15   -.312E-24 0.000E+00 0.517E-24   -.101E-13 0.802E-14 0.131E-14

 POSITION                                       TOTAL-FORCE (eV/Angst)
      0.00000      0.00000      0.00000        -0.000000     -0.000000     -0.000000
      1.66026      1.66026      1.66026         0.000000      0.000000      0.000000
    total drift:                                0.000000      0.000000      0.000000

  FREE ENERGIE OF THE ION-ELECTRON SYSTEM (eV)
  free  energy   TOTEN  =       -20.15346813 eV

  energy  without entropy=      -20.15573021  energy(sigma->0) =      -20.15403365

[...]

 d Force = 0.0000000E+00[ 0.000E+00, 0.000E+00]  d Energy =-0.1625036E-02 0.163E-02
 d Force = 0.0000000E+00[ 0.000E+00, 0.000E+00]  d Ewald  =-0.1029598E+02 0.103E+02

 Steepest descent step on ions:
 trial-energy change:    0.001625  1 .order    0.001612   -0.003655    0.006878
  (g-gl).g = 0.365E-02      g.g   = 0.365E-02  gl.gl    = 0.000E+00
 g(Force)  = 0.118E-61   g(Stress)= 0.365E-02 ortho     = 0.000E+00
 gamma     =   0.00000
 trial     =   1.00000
 opt step  =   0.34699  (harmonic =   0.34699) maximal distance =0.00000000
 next E    =   -20.154102   (d E  =  -0.00063)

 FEWALD executed in parallel

[...]

 eigenvalue-minimisations  :  1318
 total energy-change (2. order) : 0.6082791E-05  (-0.3655860E-04)
 number of electron      21.9999941 magnetization      -0.0000005
 augmentation part        8.0448485 magnetization      -0.0000010

 Broyden mixing:
  rms(total) = 0.39444E-02    rms(broyden)= 0.39444E-02
  rms(prec ) = 0.42819E-02
  weight for this iteration     100.00

 eigenvalues of (default mixing * dielectric matrix)
  average eigenvalue GAMMA=   1.5046
  2.5270  1.3632  1.3632  0.7649

[...]

----------------------------------------- Iteration    3(   6)  ---------------------------------------

 eigenvalue-minimisations  :   967
 total energy-change (2. order) :-0.4466619E-05  (-0.5763967E-05)
 number of electron      21.9999941 magnetization      -0.0000005
 augmentation part        8.0448485 magnetization      -0.0000010

 Free energy of the ion-electron system (eV)
  alpha Z        PSCENC =       245.91330901
  Ewald energy   TEWEN  =     -1906.02732904
  -1/2 Hartree   DENC   =      -246.72687129
  -exchange  EXHF       =         0.00000000
  -V(xc)+E(xc)   XCENC  =        50.83938453
  PAW double counting   =      2843.28487536    -2818.45563702
  entropy T*S    EENTRO =         0.00286510
  eigenvalues    EBANDS =      -275.75807530
  atomic energy  EATOM  =      2086.77339417
  free energy    TOTEN  =       -20.15408447 eV

  energy without entropy =      -20.15694957  energy(sigma->0) =      -20.15480074

 average (electrostatic) potential at core
  the test charge radii are     1.2125
  (the norm of the test charge is              1.0000)
       1 -35.2580       2 -35.2580

 E-fermi :   4.7533     XC(G=0): -12.3284     alpha+bet :-12.7077

[...]

 spin component 2

[...]

 k-point  20 :       0.4286    0.4286    0.4286
  band No.  band energies     occupation
      1     -25.8764      1.00000
      2     -25.7564      1.00000
      3     -25.7564      1.00000
      4     -25.4819      1.00000
      5     -25.4819      1.00000
      6     -25.3554      1.00000
      7       3.0070      1.00000
      8       3.4257      1.00000
      9       3.4257      1.00000
     10       3.9851      1.00000
     11       3.9851      1.00000
     12       4.0132      1.00000
     13       8.7002      0.00000
     14       8.7002      0.00000
     15       8.7062      0.00000
     16       8.7062      0.00000

[...]

 soft charge-density along one line, spin component           2
         0         1         2         3         4         5         6         7         8         9
 total charge-density along one line

------------------------ aborting loop because EDIFF is reached ----------------------------------------

  FORCE on cell =-STRESS in cart. coord.  units (eV):
  Direction    XX          YY          ZZ          XY          YZ          ZX
  Alpha Z   245.91331   245.91331   245.91331
  Ewald    -635.34240  -635.34240  -635.34240    -0.00000    -0.00000    -0.00000
  Hartree    82.25015    82.25015    82.25015    -0.00000    -0.00000    -0.00000
  E(xc)     -94.96006   -94.96006   -94.96006     0.00000    -0.00000    -0.00000
  Local     203.30786   203.30786   203.30786     0.00000    -0.00000    -0.00000
  n-local   -88.32899   -84.02478   -78.39832     2.94739    -1.10665     0.46409
  augment    53.72002    53.72002    53.72002    -0.00000     0.00000     0.00000
  Kinetic   219.42000   225.44070   241.22112     1.85991    -2.13031     0.36262
  Fock        0.00000     0.00000     0.00000     0.00000     0.00000     0.00000
  Total      -0.00121    -0.00121    -0.00121     0.00000     0.00000     0.00000
  in kB      -0.05265    -0.05265    -0.05265     0.00000     0.00000     0.00000

 VOLUME and BASIS-vectors are now :
  energy-cutoff  :      350.00
  volume of cell :       36.82
      direct lattice vectors                 reciprocal lattice vectors
     3.326765876  0.000000000  0.000000000     0.300592238 -0.000000000  0.000000000
     0.000000000  3.326765876  0.000000000    -0.000000000  0.300592238  0.000000000
    -0.000000000 -0.000000000  3.326765876    -0.000000000 -0.000000000  0.300592238

  length of vectors
     3.326765876  3.326765876  3.326765876     0.300592238  0.300592238  0.300592238

 FORCES acting on ions
    electron-ion (+dipol)            ewald-force                    non-local-force                 convergence-correction
   0.231E-14 0.933E-16 -.110E-15   0.182E-14 -.705E-14 -.279E-14   0.889E-24 0.165E-23 0.207E-23   -.231E-13 0.569E-14 -.130E-15
   0.566E-13 0.766E-12 0.122E-12   -.262E-14 0.190E-14 0.344E-14   -.702E-23 0.406E-25 0.331E-23   0.238E-13 0.975E-14 -.136E-14
   0.589E-13 0.766E-12 0.122E-12   -.805E-15 -.514E-14 0.652E-15   -.613E-23 0.169E-23 0.538E-23   0.722E-15 0.154E-13 -.149E-14

 POSITION                                       TOTAL-FORCE (eV/Angst)
     -0.00000     -0.00000     -0.00000        -0.000000     -0.000000     -0.000000
      1.66338      1.66338      1.66338         0.000000      0.000000      0.000000
    total drift:                                0.000000      0.000000      0.000000

  FREE ENERGIE OF THE ION-ELECTRON SYSTEM (eV)
  free  energy   TOTEN  =       -20.15408447 eV

  energy  without entropy=      -20.15694957  energy(sigma->0) =      -20.15480074

 d Force = 0.0000000E+00[ 0.000E+00, 0.000E+00]  d Energy = 0.2241374E-02-0.224E-02
 d Force = 0.0000000E+00[ 0.000E+00, 0.000E+00]  d Ewald  = 0.6710757E+01-0.671E+01

 reached required accuracy - stopping structural energy minimisation