 vasp.5.3.3 18Dez12 (build Sep  7 2015 22:32:56) complex

 executed on             LinuxIFC date 2022.12.22  15:26:16

 INCAR:
 POTCAR:    PAW_PBE Li 17Jan2003
 POTCAR:    PAW_PBE O 08Apr2002
 POTCAR:    PAW_PBE Li 17Jan2003
   VRHFIN =Li: s1p0

   TITEL  = PAW_PBE Li 17Jan2003
   POMASS =    7.010; ZVAL   =    1.000    mass and valenz
   ENMAX  =  140.000; ENMIN  =  100.000 eV

 POTCAR:    PAW_PBE O 08Apr2002
   VRHFIN =O: s2p4

   TITEL  = PAW_PBE O 08Apr2002
   POMASS =   16.000; ZVAL   =    6.000    mass and valenz
   ENMAX  =  400.000; ENMIN  =  300.000 eV

  PAW_PBE Li 17Jan2003                  :
  PAW_PBE O 08Apr2002                   :

 POSCAR: Li2 O
  positions in direct lattice
 exchange correlation table for  LEXCH =        8
   RHO(1)=    0.500       N(1)  =     2000
   RHO(2)=  100.500       N(2)  =     4000

 ion  position               nearest neighbor table
   1  0.250  0.250  0.750-  10 2.02  11 2.02   9 2.02  12 2.02   4 2.33   8 2.33   2 2.33   4 2.33
                             2 2.33   8 2.33   7 3.29   7 3.29   3 3.29   3 3.29   3 3.29   3 3.29
   2  0.250  0.750  0.750-   9 2.02  12 2.02  11 2.02  10 2.02   3 2.33   7 2.33   1 2.33   3 2.33
                             1 2.33   7 2.33   8 3.29   8 3.29   4 3.29   4 3.29   6 3.29   4 3.29
   3  0.250  0.750  0.250-   9 2.02  12 2.02  11 2.02  10 2.02   4 2.33   6 2.33   2 2.33   2 2.33
                             4 2.33   6 2.33   5 3.29   5 3.29   1 3.29   7 3.29   1 3.29   1 3.29
   4  0.250  0.250  0.250-  10 2.02  11 2.02   9 2.02  12 2.02   3 2.33   5 2.33   1 2.33   1 2.33
                             3 2.33   5 2.33   6 3.29   6 3.29   2 3.29   8 3.29   2 3.29   2 3.29
   5  0.750  0.250  0.250-   9 2.02  12 2.02  11 2.02  10 2.02   6 2.33   8 2.33   4 2.33   8 2.33
                             6 2.33   4 2.33   3 3.29   3 3.29   1 3.29   1 3.29   7 3.29   7 3.29
   6  0.750  0.750  0.250-  10 2.02  11 2.02   9 2.02  12 2.02   5 2.33   7 2.33   3 2.33   7 2.33
                             5 2.33   3 2.33   4 3.29   4 3.29   8 3.29   2 3.29   8 3.29   8 3.29
   7  0.750  0.750  0.750-  10 2.02  11 2.02   9 2.02  12 2.02   6 2.33   8 2.33   2 2.33   6 2.33
                             8 2.33   2 2.33   1 3.29   1 3.29   5 3.29   5 3.29   3 3.29   5 3.29
   8  0.750  0.250  0.750-   9 2.02  12 2.02  11 2.02  10 2.02   5 2.33   7 2.33   1 2.33   5 2.33
                             7 2.33   1 2.33   2 3.29   2 3.29   4 3.29   6 3.29   4 3.29   6 3.29
   9  0.000  0.000  0.000-   2 2.02   3 2.02   5 2.02   8 2.02   1 2.02   6 2.02   7 2.02   4 2.02

  10  0.000  0.500  0.500-   1 2.02   4 2.02   6 2.02   7 2.02   5 2.02   3 2.02   2 2.02   8 2.02

[...]

  12  0.500  0.500  0.000-   2 2.02   3 2.02   5 2.02   8 2.02   1 2.02   6 2.02   7 2.02   4 2.02

  LATTYP: Found a simple cubic cell.
 ALAT       =     4.6588420000

  Lattice vectors:

 A1 = (   4.6588420000,   0.0000000000,   0.0000000000)
 A2 = (   0.0000000000,   4.6588420000,   0.0000000000)
 A3 = (   0.0000000000,   0.0000000000,   4.6588420000)

Analysis of symmetry for initial positions (statically):
 Subroutine PRICEL returns following result:

  LATTYP: Found a face centered cubic cell.
 ALAT       =     4.6588420000

[...]

   4 primitive cells build up your supercell.

 Routine SETGRP: Setting up the symmetry group for a
 simple cubic supercell.

 Subroutine GETGRP returns: Found 48 space group operations
 (whereof 48 operations were pure point group operations)
 out of a pool of 48 trial point group operations.

The static configuration has the point symmetry O_h .

Analysis of symmetry for dynamics (positions and initial velocities):
 Subroutine PRICEL returns following result:

[...]

The dynamic configuration has the point symmetry O_h .

Analysis of constrained symmetry for selective dynamics:
 Subroutine PRICEL returns following result:

  LATTYP: Found a face centered cubic cell.
 ALAT       =     4.6588420000

  Lattice vectors:

 A1 = (   2.3294210000,   2.3294210000,   0.0000000000)
 A2 = (   2.3294210000,   0.0000000000,  -2.3294210000)
 A3 = (   0.0000000000,   2.3294210000,  -2.3294210000)

   4 primitive cells build up your supercell.

 Routine SETGRP: Setting up the symmetry group for a
 simple cubic supercell.

 Subroutine GETGRP returns: Found 48 space group operations
 (whereof 48 operations were pure point group operations)
 out of a pool of 48 trial point group operations.

The constrained configuration has the point symmetry O_h .

Analysis of magnetic symmetry:

 Subroutine MAGSYM returns: Found 48 space group operations
 (whereof 48 operations were pure point group operations)
 out of a pool of 48 trial space group operations
 (whereof 48 operations were pure point group operations)
 and found also     4 'primitive' translations

The magnetic configuration has the point symmetry O_h .

 irot  :   1
 isymop:   1   0   0
           0   1   0
           0   0   1

 gtrans:     0.0000000     0.0000000     0.0000000

 ptrans:     0.0000000     0.0000000     0.0000000
 rotmap:
 (   1->   1)  (   2->   2)  (   3->   3)  (   4->   4)  (   5->   5)
 (   6->   6)  (   7->   7)  (   8->   8)  (   9->   9)  (  10->  10)
 (  11->  11)  (  12->  12)

[...]

 irot  :  48
 isymop:   0   0   1
           0   1   0
           1   0   0

 gtrans:     0.0000000     0.0000000     0.0000000

[...]

 ptrans:     0.0000000     0.5000000     0.5000000
 rotmap:
 (   1->   7)  (   2->   8)  (   3->   1)  (   4->   2)  (   5->   3)
 (   6->   4)  (   7->   5)  (   8->   6)  (   9->  10)  (  10->  11)
 (  11->  12)  (  12->   9)

 KPOINTS: K-Points

Automatic generation of k-mesh.
Space group operators:
 irot       det(A)        alpha          n_x          n_y          n_z        tau_x        tau_y        tau_z
    1     1.000000     0.000000     1.000000     0.000000     0.000000     0.000000     0.000000     0.000000
    2    -1.000000     0.000000     1.000000     0.000000     0.000000     0.000000     0.000000     0.000000
    3     1.000000   120.000000    -0.577350    -0.577350    -0.577350     0.000000     0.000000     0.000000
    4    -1.000000   120.000000    -0.577350    -0.577350    -0.577350     0.000000     0.000000     0.000000
    5     1.000000   120.000000     0.577350     0.577350     0.577350     0.000000     0.000000     0.000000
    6    -1.000000   120.000000     0.577350     0.577350     0.577350     0.000000     0.000000     0.000000
    7     1.000000    90.000000     0.000000     0.000000    -1.000000     0.000000     0.000000     0.000000
    8    -1.000000    90.000000     0.000000     0.000000    -1.000000     0.000000     0.000000     0.000000
    9     1.000000   180.000000     0.000000    -0.707107    -0.707107     0.000000     0.000000     0.000000
   10    -1.000000   180.000000     0.000000    -0.707107    -0.707107     0.000000     0.000000     0.000000
   11     1.000000    90.000000     0.000000     1.000000     0.000000     0.000000     0.000000     0.000000
   12    -1.000000    90.000000     0.000000     1.000000     0.000000     0.000000     0.000000     0.000000
   13     1.000000   180.000000    -0.000000    -0.000000     1.000000     0.000000     0.000000     0.000000
   14    -1.000000   180.000000    -0.000000    -0.000000     1.000000     0.000000     0.000000     0.000000
   15     1.000000   120.000000    -0.577350     0.577350     0.577350     0.000000     0.000000     0.000000
   16    -1.000000   120.000000    -0.577350     0.577350     0.577350     0.000000     0.000000     0.000000
   17     1.000000   120.000000    -0.577350     0.577350    -0.577350     0.000000     0.000000     0.000000
   18    -1.000000   120.000000    -0.577350     0.577350    -0.577350     0.000000     0.000000     0.000000
   19     1.000000    90.000000    -0.000000    -0.000000     1.000000     0.000000     0.000000     0.000000
   20    -1.000000    90.000000    -0.000000    -0.000000     1.000000     0.000000     0.000000     0.000000
   21     1.000000    90.000000    -1.000000     0.000000    -0.000000     0.000000     0.000000     0.000000
   22    -1.000000    90.000000    -1.000000     0.000000    -0.000000     0.000000     0.000000     0.000000
   23     1.000000   180.000000    -0.707107     0.000000    -0.707107     0.000000     0.000000     0.000000
   24    -1.000000   180.000000    -0.707107     0.000000    -0.707107     0.000000     0.000000     0.000000
   25     1.000000   120.000000     0.577350    -0.577350     0.577350     0.000000     0.000000     0.000000
   26    -1.000000   120.000000     0.577350    -0.577350     0.577350     0.000000     0.000000     0.000000
   27     1.000000   120.000000    -0.577350    -0.577350     0.577350     0.000000     0.000000     0.000000
   28    -1.000000   120.000000    -0.577350    -0.577350     0.577350     0.000000     0.000000     0.000000
   29     1.000000   180.000000     1.000000    -0.000000     0.000000     0.000000     0.000000     0.000000
   30    -1.000000   180.000000     1.000000    -0.000000     0.000000     0.000000     0.000000     0.000000
   31     1.000000    90.000000    -0.000000    -1.000000     0.000000     0.000000     0.000000     0.000000
   32    -1.000000    90.000000    -0.000000    -1.000000     0.000000     0.000000     0.000000     0.000000
   33     1.000000   180.000000     0.707107     0.707107     0.000000     0.000000     0.000000     0.000000
   34    -1.000000   180.000000     0.707107     0.707107     0.000000     0.000000     0.000000     0.000000
   35     1.000000    90.000000     1.000000    -0.000000    -0.000000     0.000000     0.000000     0.000000
   36    -1.000000    90.000000     1.000000    -0.000000    -0.000000     0.000000     0.000000     0.000000
   37     1.000000   120.000000     0.577350    -0.577350    -0.577350     0.000000     0.000000     0.000000
   38    -1.000000   120.000000     0.577350    -0.577350    -0.577350     0.000000     0.000000     0.000000
   39     1.000000   180.000000     0.000000     1.000000     0.000000     0.000000     0.000000     0.000000
   40    -1.000000   180.000000     0.000000     1.000000     0.000000     0.000000     0.000000     0.000000
   41     1.000000   120.000000     0.577350     0.577350    -0.577350     0.000000     0.000000     0.000000
   42    -1.000000   120.000000     0.577350     0.577350    -0.577350     0.000000     0.000000     0.000000
   43     1.000000   180.000000    -0.000000    -0.707107     0.707107     0.000000     0.000000     0.000000
   44    -1.000000   180.000000    -0.000000    -0.707107     0.707107     0.000000     0.000000     0.000000
   45     1.000000   180.000000     0.707107    -0.707107     0.000000     0.000000     0.000000     0.000000
   46    -1.000000   180.000000     0.707107    -0.707107     0.000000     0.000000     0.000000     0.000000
   47     1.000000   180.000000     0.707107    -0.000000    -0.707107     0.000000     0.000000     0.000000
   48    -1.000000   180.000000     0.707107    -0.000000    -0.707107     0.000000     0.000000     0.000000

 Subroutine IBZKPT returns following result:

 Found     10 irreducible k-points:

 Following reciprocal coordinates:
            Coordinates               Weight
[...]
   LVEL    =     F    velocity operator in full k-point grid
   LINTERFAST=   F  fast interpolation
   KINTER  =     0    interpolate to denser k-point grid
   CSHIFT  =0.1000    complex shift for real part using Kramers Kronig
   OMEGAMAX=  -1.0    maximum frequency
   DEG_THRESHOLD= 0.2000000E-02 threshold for treating states as degnerate
   RTIME   =    0.100 relaxation time in fs

 Orbital magnetization related:
   ORBITALMAG=     F  switch on orbital magnetization
   LCHIMAG   =     F  perturbation theory with respect to B field
   DQ        =  0.001000  dq finite difference perturbation B field

 conjugate gradient relaxation of ions
   using selective dynamics as specified on POSCAR
 charge density and potential will be updated during run
 spin polarized calculation
 RMM-DIIS sequential band-by-band and
  variant of blocked Davidson during initial phase
 perform sub-space diagonalisation
    before iterative eigenvector-optimisation
 modified Broyden-mixing scheme, WC =      100.0
 initial mixing is a Kerker type mixing with AMIX =  0.4000 and BMIX =      1.0000
 Hartree-type preconditioning will be used
 using additional bands           13
 reciprocal scheme for non local part
 use partial core corrections
 calculate Harris-corrections to forces
   (improved forces if not selfconsistent)
 use gradient corrections
 use of overlap-Matrix (Vanderbilt PP)
 Methfessel and Paxton  Order N= 2 SIGMA  =   0.10

  energy-cutoff  :      350.00
  volume of cell :      101.12
      direct lattice vectors                 reciprocal lattice vectors
     4.658842000  0.000000000  0.000000000     0.214645614 -0.000000000  0.000000000
     0.000000000  4.658842000  0.000000000     0.000000000  0.214645614  0.000000000
     0.000000000  0.000000000  4.658842000    -0.000000000 -0.000000000  0.214645614

  length of vectors
     4.658842000  4.658842000  4.658842000     0.214645614  0.214645614  0.214645614

 k-points in units of 2pi/SCALE and weight: K-Points
   0.00000000  0.00000000  0.00000000       0.008
   0.04292912 -0.00000000  0.00000000       0.048
   0.08585825 -0.00000000  0.00000000       0.048
   0.04292912  0.04292912  0.00000000       0.096
   0.08585825  0.04292912  0.00000000       0.192
   0.08585825  0.08585825  0.00000000       0.096
   0.04292912  0.04292912  0.04292912       0.064
   0.08585825  0.04292912  0.04292912       0.192
   0.08585825  0.08585825  0.04292912       0.192
   0.08585825  0.08585825  0.08585825       0.064

 k-points in reciprocal lattice and weights: K-Points
   0.00000000  0.00000000  0.00000000       0.008
   0.20000000 -0.00000000  0.00000000       0.048
   0.40000000 -0.00000000  0.00000000       0.048
   0.20000000  0.20000000  0.00000000       0.096
   0.40000000  0.20000000  0.00000000       0.192
   0.40000000  0.40000000  0.00000000       0.096
   0.20000000  0.20000000  0.20000000       0.064
   0.40000000  0.20000000  0.20000000       0.192
   0.40000000  0.40000000  0.20000000       0.192
   0.40000000  0.40000000  0.40000000       0.064

 position of ions in fractional coordinates (direct lattice)
   0.25000000  0.25000000  0.75000000
   0.25000000  0.75000000  0.75000000
   0.25000000  0.75000000  0.25000000
   0.25000000  0.25000000  0.25000000
   0.75000000  0.25000000  0.25000000
   0.75000000  0.75000000  0.25000000
   0.75000000  0.75000000  0.75000000
   0.75000000  0.25000000  0.75000000
   0.00000000  0.00000000  0.00000000
   0.00000000  0.50000000  0.50000000
   0.50000000  0.00000000  0.50000000
   0.50000000  0.50000000  0.00000000

 position of ions in cartesian coordinates  (Angst):
   1.16471050  1.16471050  3.49413150
   1.16471050  3.49413150  3.49413150
   1.16471050  3.49413150  1.16471050
   1.16471050  1.16471050  1.16471050
   3.49413150  1.16471050  1.16471050
   3.49413150  3.49413150  1.16471050
   3.49413150  3.49413150  3.49413150
   3.49413150  1.16471050  3.49413150
   0.00000000  0.00000000  0.00000000
   0.00000000  2.32942100  2.32942100
   2.32942100  0.00000000  2.32942100
   2.32942100  2.32942100  0.00000000

 k-point  1 :   0.0000 0.0000 0.0000  plane waves:    1503
 k-point  2 :   0.2000-0.0000 0.0000  plane waves:    1486
 k-point  3 :   0.4000-0.0000 0.0000  plane waves:    1502
 k-point  4 :   0.2000 0.2000 0.0000  plane waves:    1508
 k-point  5 :   0.4000 0.2000 0.0000  plane waves:    1502
 k-point  6 :   0.4000 0.4000 0.0000  plane waves:    1516
 k-point  7 :   0.2000 0.2000 0.2000  plane waves:    1496
 k-point  8 :   0.4000 0.2000 0.2000  plane waves:    1511
 k-point  9 :   0.4000 0.4000 0.2000  plane waves:    1504
 k-point 10 :   0.4000 0.4000 0.4000  plane waves:    1511

 maximum and minimum number of plane-waves per node :      1516     1486

 maximum number of plane-waves:      1516
 maximum index in each direction:
   IXMAX=    7   IYMAX=    7   IZMAX=    7
   IXMIN=   -7   IYMIN=   -7   IZMIN=   -7

 WARNING: aliasing errors must be expected set NGX to  30 to avoid them
 WARNING: aliasing errors must be expected set NGY to  30 to avoid them
 WARNING: aliasing errors must be expected set NGZ to  30 to avoid them
 aliasing errors are usually negligible using standard VASP settings
 and one can safely disregard these warnings

 serial   3D FFT for wavefunctions
 parallel 3D FFT for charge:
    minimum data exchange during FFTs selected (reduces bandwidth)

 Broyden mixing: mesh for mixing (old mesh)
   NGX = 15   NGY = 15   NGZ = 15
  (NGX  = 48   NGY  = 48   NGZ  = 48)
  gives a total of   3375 points

 initial charge density was supplied:
 charge density of overlapping atoms calculated
 number of electron      32.0000000 magnetization      12.0000000
 keeping initial charge density in first step

 Maximum index for augmentation-charges         4169 (set IRDMAX)

 First call to EWALD:  gamma=   0.380
 Maximum number of real-space cells 3x 3x 3
 Maximum number of reciprocal cells 3x 3x 3

 FEWALD executed in parallel

----------------------------------------- Iteration    1(   1)  ---------------------------------------

 eigenvalue-minimisations  :  1160
 total energy-change (2. order) : 0.9784922E+02  (-0.1167384E+04)
 number of electron      32.0000000 magnetization      12.0000000
 augmentation part       32.0000000 magnetization      12.0000000

 Free energy of the ion-electron system (eV)
  alpha Z        PSCENC =        35.94768922
  Ewald energy   TEWEN  =     -1209.45435322
  -1/2 Hartree   DENC   =      -566.51033158
  -exchange  EXHF       =         0.00000000
  -V(xc)+E(xc)   XCENC  =        82.39331249
  PAW double counting   =      1445.86238148    -1408.57204413
  entropy T*S    EENTRO =        -0.00179346
  eigenvalues    EBANDS =       -52.21878376
  atomic energy  EATOM  =      1770.40313988
  free energy    TOTEN  =        97.84921691 eV

  energy without entropy =       97.85101037  energy(sigma->0) =       97.84966527

[...]

 eigenvalue-minimisations  :  1463
 total energy-change (2. order) :-0.1474566E+03  (-0.1383777E+03)
 number of electron      32.0000000 magnetization      12.0000000
 augmentation part       32.0000000 magnetization      12.0000000

[...]

 Broyden mixing:
  rms(total) = 0.22014E+01    rms(broyden)= 0.22012E+01
  rms(prec ) = 0.36794E+01
  weight for this iteration     100.00

[...]

 eigenvalues of (default mixing * dielectric matrix)
  average eigenvalue GAMMA=   0.8119
  0.8119

[...]

 eigenvalue-minimisations  :   893
 total energy-change (2. order) : 0.1068002E-04  (-0.2152479E-05)
 number of electron      32.0000076 magnetization       0.0005259
 augmentation part        2.6234716 magnetization       0.0005282

 Broyden mixing:
  rms(total) = 0.12299E-02    rms(broyden)= 0.12299E-02
  rms(prec ) = 0.23953E-02
  weight for this iteration     100.00

 eigenvalues of (default mixing * dielectric matrix)
  average eigenvalue GAMMA=   1.3072
  2.9670  2.4495  0.9753  0.9753  0.8721  0.8721  0.6278  0.7186

[...]

----------------------------------------- Iteration    1(  19)  ---------------------------------------

 eigenvalue-minimisations  :   999
 total energy-change (2. order) :-0.4889616E-05  (-0.5490918E-05)
 number of electron      32.0000076 magnetization       0.0005259
 augmentation part        2.6234716 magnetization       0.0005282

 Free energy of the ion-electron system (eV)
  alpha Z        PSCENC =        35.94768922
  Ewald energy   TEWEN  =     -1209.45435322
  -1/2 Hartree   DENC   =      -651.46541008
  -exchange  EXHF       =         0.00000000
  -V(xc)+E(xc)   XCENC  =        84.79657205
  PAW double counting   =      2107.50436774    -2071.05537185
  entropy T*S    EENTRO =         0.00038971
  eigenvalues    EBANDS =      -124.12280680
  atomic energy  EATOM  =      1770.40313988
  free energy    TOTEN  =       -57.44578335 eV

  energy without entropy =      -57.44617306  energy(sigma->0) =      -57.44588078

 average (electrostatic) potential at core
  the test charge radii are     0.9748  0.7215
  (the norm of the test charge is              1.0000)
       1 -26.4176       2 -26.4176       3 -26.4176       4 -26.4176       5 -26.4176
       6 -26.4176       7 -26.4176       8 -26.4176       9 -71.7596      10 -71.7596
      11 -71.7596      12 -71.7596

 E-fermi :   0.8858     XC(G=0):  -9.2344     alpha+bet :-14.5817

 spin component 1

 k-point   1 :       0.0000    0.0000    0.0000
  band No.  band energies     occupation
      1     -14.6376      1.00000
      2     -14.3412      1.00000
      3     -14.3412      1.00000
      4     -14.3412      1.00000
      5      -0.7753      1.00000
      6      -0.7753      1.00000
      7      -0.7753      1.00000
      8      -0.5206      1.00000
      9      -0.5206      1.00000
     10      -0.5206      1.00000
     11      -0.5206      1.00000
     12      -0.5206      1.00000
     13      -0.5206      1.00000
     14       0.8469      0.86640
     15       0.8469      0.86640
     16       0.8469      0.86640
     17       5.7795      0.00000
     18       5.7795      0.00000
     19       5.7795      0.00000
     20       5.9193      0.00000
     21      12.6539      0.00000
     22      12.6539      0.00000
     23      12.6539      0.00000
     24      14.1924      0.00000
     25      14.1924      0.00000
     26      14.1924      0.00000
     27      14.1924      0.00000
     28      14.1924      0.00000
     29      14.1924      0.00000

[...]

 spin component 2

[...]

 k-point  10 :       0.4000    0.4000    0.4000
  band No.  band energies     occupation
      1     -14.4195      1.00000
      2     -14.3918      1.00000
      3     -14.3918      1.00000
      4     -14.3918      1.00000
      5      -1.7980      1.00000
      6      -1.7980      1.00000
      7      -1.7980      1.00000
      8      -1.6749      1.00000
      9       0.2634      1.00000
     10       0.2634      1.00000
     11       0.2634      1.00000
     12       0.2888      1.00000
     13       0.2888      1.00000
     14       0.2888      1.00000
     15       0.4341      1.00000
     16       0.4341      1.00000
     17       8.9385      0.00000
     18       9.3264      0.00000
     19       9.3264      0.00000
     20       9.3264      0.00000
     21      10.7379      0.00000
     22      10.7379      0.00000
     23      10.7379      0.00000
     24      11.2969      0.00000
     25      12.8930      0.00000
     26      12.8930      0.00000
     27      12.9557      0.00000
     28      12.9557      0.00000
     29      12.9559      0.00000

 soft charge-density along one line, spin component           1
         0         1         2         3         4         5         6         7         8         9
 total charge-density along one line

 soft charge-density along one line, spin component           2
         0         1         2         3         4         5         6         7         8         9
 total charge-density along one line

------------------------ aborting loop because EDIFF is reached ----------------------------------------

  FORCE on cell =-STRESS in cart. coord.  units (eV):
  Direction    XX          YY          ZZ          XY          YZ          ZX
  Alpha Z    35.94769    35.94769    35.94769
  Ewald    -403.15199  -403.15199  -403.15199     0.00000     0.00000     0.00000
  Hartree   217.08892   217.08892   217.08892    -0.00000    -0.00000    -0.00000
  E(xc)    -140.66463  -140.66463  -140.66463     0.00000     0.00000    -0.00000
  Local    -217.80825  -217.80825  -217.80825    -0.00000    -0.00000    -0.00000
  n-local   -85.79504   -87.17046   -88.36258     0.27306     0.18253     0.13714
  augment    27.22017    27.22017    27.22017    -0.00000     0.00000    -0.00000
  Kinetic   553.20341   561.55442   566.00881    -1.66550    -1.07218    -0.89082
  Fock        0.00000     0.00000     0.00000     0.00000     0.00000     0.00000
  Total      -8.22190    -8.22190    -8.22190    -0.00000    -0.00000    -0.00000
  in kB    -130.27135  -130.27135  -130.27135    -0.00000    -0.00000    -0.00000

 VOLUME and BASIS-vectors are now :
  energy-cutoff  :      350.00
  volume of cell :      101.12
      direct lattice vectors                 reciprocal lattice vectors
     4.658842000  0.000000000  0.000000000     0.214645614 -0.000000000  0.000000000
     0.000000000  4.658842000  0.000000000     0.000000000  0.214645614  0.000000000
     0.000000000  0.000000000  4.658842000    -0.000000000 -0.000000000  0.214645614

  length of vectors
     4.658842000  4.658842000  4.658842000     0.214645614  0.214645614  0.214645614

 FORCES acting on ions
    electron-ion (+dipol)            ewald-force                    non-local-force                 convergence-correction
   0.121E-14 0.345E-15 -.283E-13   0.888E-14 0.533E-14 0.355E-14   -.732E-17 0.358E-17 -.379E-17   -.129E-14 0.300E-15 -.359E-15
   0.766E-16 -.529E-14 -.308E-13   0.711E-14 0.178E-14 -.107E-13   -.158E-18 0.217E-18 -.651E-18   -.116E-14 -.301E-15 -.336E-15
   0.502E-15 -.113E-14 -.256E-13   0.888E-14 0.533E-14 0.355E-14   -.385E-17 -.103E-17 -.661E-17   -.134E-14 -.307E-15 0.340E-15
   -.601E-15 -.289E-15 -.223E-13   0.711E-14 0.178E-14 -.107E-13   0.678E-17 -.385E-17 0.217E-18   -.116E-14 0.302E-15 0.363E-15
   -.340E-14 -.146E-14 -.196E-13   0.888E-14 0.533E-14 0.355E-14   0.484E-18 -.287E-17 -.596E-17   0.115E-14 0.304E-15 0.361E-15
   -.314E-14 -.122E-13 -.333E-14   0.888E-14 0.178E-14 -.107E-13   0.570E-17 0.309E-17 -.163E-17   0.128E-14 -.300E-15 0.343E-15
   -.384E-14 -.423E-13 -.356E-13   0.888E-14 0.533E-14 0.355E-14   -.125E-17 0.228E-17 -.726E-17   0.115E-14 -.300E-15 -.341E-15
   -.319E-14 0.525E-13 -.534E-13   0.888E-14 0.178E-14 -.107E-13   0.244E-17 -.651E-18 -.217E-17   0.123E-14 0.305E-15 -.360E-15
   -.187E-14 -.139E-14 -.183E-14   -.178E-13 -.705E-14 0.678E-14   0.224E-23 0.165E-23 0.165E-23   0.778E-14 -.782E-14 0.145E-14
   -.234E-14 0.187E-12 0.187E-12   -.268E-13 -.780E-14 0.798E-14   0.206E-23 0.165E-23 -.248E-23   0.859E-14 -.491E-14 0.154E-14
   0.187E-12 -.143E-14 -.166E-11   -.176E-13 -.668E-14 0.689E-14   -.450E-24 -.165E-23 0.000E+00   -.330E-14 0.973E-15 0.675E-14
   0.188E-12 -.141E-11 -.162E-11   -.141E-13 -.742E-14 0.761E-14   -.187E-23 -.165E-23 -.165E-23   -.444E-14 -.622E-14 -.596E-14
   0.358E-12 -.123E-11 -.332E-11   -.879E-14 -.532E-15 0.845E-15   0.282E-17 0.759E-18 -.279E-16   0.849E-14 -.180E-13 0.378E-14

 POSITION                                       TOTAL-FORCE (eV/Angst)
      1.16471      1.16471      3.49413         0.000000      0.000000      0.000000
      1.16471      3.49413      3.49413         0.000000      0.000000      0.000000
      1.16471      3.49413      1.16471         0.000000      0.000000      0.000000
      1.16471      1.16471      1.16471         0.000000      0.000000      0.000000
      3.49413      1.16471      1.16471         0.000000      0.000000      0.000000
      3.49413      3.49413      1.16471         0.000000      0.000000      0.000000
      3.49413      3.49413      3.49413         0.000000      0.000000      0.000000
      3.49413      1.16471      3.49413         0.000000      0.000000      0.000000
      0.00000      0.00000      0.00000        -0.000000     -0.000000     -0.000000
      0.00000      2.32942      2.32942         0.000000      0.000000     -0.000000
      2.32942      0.00000      2.32942        -0.000000     -0.000000     -0.000000
      2.32942      2.32942      0.00000         0.000000     -0.000000      0.000000
    total drift:                                0.000000     -0.000000     -0.000000

  FREE ENERGIE OF THE ION-ELECTRON SYSTEM (eV)
  free  energy   TOTEN  =       -57.44578335 eV

  energy  without entropy=      -57.44617306  energy(sigma->0) =      -57.44588078

 reached required accuracy - stopping structural energy minimisation