 vasp.5.3.3 18Dez12 (build Sep  7 2015 22:32:56) complex

 executed on             LinuxIFC date 2002.01.11  02:49:24

 eigenvalue-minimisations  :   770
 total energy-change (2. order) : 0.2303661E+02  (-0.2034206E+02)
 number of electron      96.0000836 magnetization      11.8914575
 augmentation part       52.4068078 magnetization      11.4574553

 Broyden mixing:
  rms(total) = 0.80151E+01    rms(broyden)= 0.80148E+01
  rms(prec ) = 0.98301E+01
  weight for this iteration     100.00

 eigenvalues of (default mixing * dielectric matrix)
  average eigenvalue GAMMA=   0.2576
  0.3213  0.3213  0.1303

 Free energy of the ion-electron system (eV)
  alpha Z        PSCENC =       328.78290224
  Ewald energy   TEWEN  =     19259.87496258
  -1/2 Hartree   DENC   =    -26511.72685027
  -exchange  EXHF       =         0.00000000
  -V(xc)+E(xc)   XCENC  =        37.05651387
  PAW double counting   =      7392.99050893    -7469.30301221
  entropy T*S    EENTRO =        -0.00336494
  eigenvalues    EBANDS =      -292.35898648
  atomic energy  EATOM  =      7131.53793727
  free energy    TOTEN  =      -123.14938902 eV

  energy without entropy =     -123.14602408  energy(sigma->0) =     -123.14854778
re radius for proj-oper

  PAW_PBE Fe 06Sep2000                  :

 POSCAR: header
  positions in cartesian coordinates
 exchange correlation table for  LEXCH =        8
   RHO(1)=    0.500       N(1)  =     2000
   RHO(2)=  100.500       N(2)  =     4000

 ion  position               nearest neighbor table
   1  0.000  0.000  0.000-   2 2.44   4 2.44   2 2.44   4 2.44   2 2.44   2 2.44   3 2.82   3 2.82

   2  0.500  0.500  0.000-   1 2.44   3 2.44   1 2.44   3 2.44   1 2.44   1 2.44   4 2.82   4 2.82

   3  0.500  0.000  0.091-   4 2.44   2 2.44   4 2.44   2 2.44   6 2.44   4 2.44   6 2.44   4 2.44
                             1 2.82   5 2.82   1 2.82   5 2.82
   4  0.000  0.500  0.091-   3 2.44   1 2.44   3 2.44   1 2.44   5 2.44   3 2.44   5 2.44   3 2.44
                             2 2.82   6 2.82   2 2.82   6 2.82
   5  0.000  0.000  0.181-   6 2.44   8 2.44   6 2.44   8 2.44   4 2.44   6 2.44   4 2.44   6 2.44
                             7 2.82   3 2.82   7 2.82   3 2.82
   6  0.500  0.500  0.181-   5 2.44   7 2.44   5 2.44   7 2.44   3 2.44   5 2.44   3 2.44   5 2.44
                             8 2.82   4 2.82   8 2.82   4 2.82
   7  0.500  0.000  0.272-   8 2.44   6 2.44   8 2.44   6 2.44   8 2.44  10 2.44   8 2.44  10 2.44
                             5 2.82   5 2.82   9 2.82   9 2.82
   8  0.000  0.500  0.272-   7 2.44   5 2.44   7 2.44   5 2.44   7 2.44   9 2.44   7 2.44   9 2.44
                             6 2.82   6 2.82  10 2.82  10 2.82
   9  0.000  0.000  0.363-  10 2.44  12 2.44  10 2.44  12 2.44  10 2.44   8 2.44  10 2.44   8 2.44
                            11 2.82  11 2.82   7 2.82   7 2.82
  10  0.500  0.500  0.363-   9 2.44  11 2.44   9 2.44  11 2.44   9 2.44   7 2.44   9 2.44   7 2.44
                            12 2.82  12 2.82   8 2.82   8 2.82
  11  0.500  0.000  0.454-  12 2.44  10 2.44  12 2.44  10 2.44  12 2.44  12 2.44   9 2.82   9 2.82

  12  0.000  0.500  0.454-  11 2.44   9 2.44  11 2.44   9 2.44  11 2.44  11 2.44  10 2.82  10 2.82

  LATTYP: Found a simple orthorhombic cell.
 ALAT       =     2.8188897900
 B/A-ratio  =     1.4142135617
 C/A-ratio  =     7.7925289942

  Lattice vectors:

 A1 = (   0.0000000000,  -2.8188897900,   0.0000000000)
 A2 = (  -3.9865121700,   0.0000000000,   0.0000000000)
 A3 = (   0.0000000000,   0.0000000000, -21.9662804200)

Analysis of symmetry for initial positions (statically):
 Subroutine PRICEL returns following result:

  LATTYP: Found a base centered orthorhombic cell.
 ALAT       =     2.8188897900
 B/A-ratio  =     1.4142135617
 C/A-ratio  =     7.7925289942

[...]

   2 primitive cells build up your supercell.

 Routine SETGRP: Setting up the symmetry group for a
 simple orthorhombic supercell.

 Subroutine GETGRP returns: Found  8 space group operations
 (whereof  4 operations were pure point group operations)
 out of a pool of  8 trial point group operations.

The static configuration has the point symmetry C_2v.
 The point group associated with its full space group is D_2h.

Analysis of symmetry for dynamics (positions and initial velocities):
 Subroutine PRICEL returns following result:

[...]

The dynamic configuration has the point symmetry C_2v.
 The point group associated with its full space group is D_2h.

Analysis of constrained symmetry for selective dynamics:
 Subroutine PRICEL returns following result:

  LATTYP: Found a base centered orthorhombic cell.
 ALAT       =     2.8188897900
 B/A-ratio  =     1.4142135617
 C/A-ratio  =     7.7925289942

  Lattice vectors:

 A1 = (   1.9932560850,  -1.4094448950,   0.0000000000)
 A2 = (  -1.9932560850,  -1.4094448950,   0.0000000000)
 A3 = (   0.0000000000,   0.0000000000, -21.9662804200)

   2 primitive cells build up your supercell.

 Routine SETGRP: Setting up the symmetry group for a
 simple orthorhombic supercell.

 Subroutine GETGRP returns: Found  4 space group operations
 (whereof  4 operations were pure point group operations)
 out of a pool of  8 trial point group operations.

The constrained configuration has the point symmetry C_2v.

Analysis of magnetic symmetry:

 Subroutine MAGSYM returns: Found  4 space group operations
 (whereof  4 operations were pure point group operations)
 out of a pool of  4 trial space group operations
 (whereof  4 operations were pure point group operations)
 and found also     2 'primitive' translations

The magnetic configuration has the point symmetry C_2v.

 irot  :   1
 isymop:   1   0   0
           0   1   0
           0   0   1

 gtrans:     0.0000000     0.0000000     0.0000000

 ptrans:     0.0000000     0.0000000     0.0000000
 rotmap:
 (   1->   1)  (   2->   2)  (   3->   3)  (   4->   4)  (   5->   5)
 (   6->   6)  (   7->   7)  (   8->   8)  (   9->   9)  (  10->  10)
 (  11->  11)  (  12->  12)

[...]

 irot  :   4
 isymop:   1   0   0
           0  -1   0
           0   0   1

 gtrans:     0.0000000     0.0000000     0.0000000

[...]

 ptrans:     0.5000000     0.5000000     0.0000000
 rotmap:
 (   1->   2)  (   2->   1)  (   3->   4)  (   4->   3)  (   5->   6)
 (   6->   5)  (   7->   8)  (   8->   7)  (   9->  10)  (  10->   9)
 (  11->  12)  (  12->  11)

 KPOINTS: K-Points

Automatic generation of k-mesh.
Space group operators:
 irot       det(A)        alpha          n_x          n_y          n_z        tau_x        tau_y        tau_z
    1     1.000000     0.000000     1.000000     0.000000     0.000000     0.000000     0.000000     0.000000
    2     1.000000   180.000000     0.000000     0.000000     1.000000     0.000000     0.000000     0.000000
    3    -1.000000   180.000000     1.000000     0.000000     0.000000     0.000000     0.000000     0.000000
    4    -1.000000   180.000000     0.000000     1.000000     0.000000     0.000000     0.000000     0.000000

 Subroutine IBZKPT returns following result:

 Found      4 irreducible k-points:

 Following reciprocal coordinates:
            Coordinates               Weight
  0.000000  0.000000  0.000000      1.000000
  0.333333  0.000000  0.000000      2.000000
  0.000000  0.333333  0.000000      2.000000
  0.333333  0.333333  0.000000      4.000000

 Following cartesian coordinates:
            Coordinates               Weight
  0.000000  0.000000  0.000000      1.000000
  0.083615  0.000000  0.000000      2.000000
  0.000000  0.118250  0.000000      2.000000
  0.083615  0.118250  0.000000      4.000000

 I would recommend the setting:
   dimension x,y,z NGX =    18 NGY =   13 NGZ =  101
 SYSTEM =  Crystal
 POSCAR =  header

 Startparameter for this run:
   NWRITE =      2    write-flag & timer
   PREC   = normal    normal or accurate (medium, high low for compatibility)
   ISTART =      0    job   : 0-new  1-cont  2-samecut
   ICHARG =      2    charge: 1-file 2-atom 10-const
   ISPIN  =      2    spin polarized calculation?
   LNONCOLLINEAR =      F non collinear calculations
   LSORBIT =      F    spin-orbit coupling
   INIWAV =      1    electr: 0-lowe 1-rand  2-diag
   LASPH  =      F    aspherical Exc in radial PAW
   METAGGA=      F    non-selfconsistent MetaGGA calc.

 Electronic Relaxation 1
   ENCUT  =  350.0 eV  25.72 Ry    5.07 a.u.   6.08  4.30 33.51*2*pi/ulx,y,z
   ENINI  =  350.0     initial cutoff
   ENAUG  =  511.4 eV  augmentation charge cutoff
   NELM   =     60;   NELMIN=  4; NELMDL=-10     # of ELM steps
   EDIFF  = 0.1E-04   stopping-criterion for ELM
   LREAL  =      F    real-space projection
   NLSPLINE    = F    spline interpolate recip. space projectors
   LCOMPAT=      F    compatible to vasp.4.4
   GGA_COMPAT  = T    GGA compatible to vasp.4.4-vasp.4.6
   LMAXPAW     = -100 max onsite density
   LMAXMIX     =    2 max onsite mixed and CHGCAR
   VOSKOWN=      0    Vosko Wilk Nusair interpolation
   ROPT   =    0.00000
 Ionic relaxation
   EDIFFG = -.1E-01   stopping-criterion for IOM
   NSW    =    300    number of steps for IOM
   NBLOCK =      1;   KBLOCK =    300    inner block; outer block
   IBRION =      2    ionic relax: 0-MD 1-quasi-New 2-CG
   NFREE  =      1    steps in history (QN), initial steepest desc. (CG)
   ISIF   =      2    stress and relaxation
   IWAVPR =     11    prediction:  0-non 1-charg 2-wave 3-comb
   ISYM   =      2    0-nonsym 1-usesym 2-fastsym
   LCORR  =      T    Harris-Foulkes like correction to forces

   POTIM  = 0.5000    time-step for ionic-motion
   TEIN   =    0.0    initial temperature
   TEBEG  =    0.0;   TEEND  =   0.0 temperature during run
   SMASS  =  -3.00    Nose mass-parameter (am)
   estimated Nose-frequenzy (Omega)   =  0.10E-29 period in steps =****** mass=  -0.363E-27a.u.
   SCALEE = 1.0000    scale energy and forces
   NPACO  =    256;   APACO  = 16.0  distance and # of slots for P.C.
   PSTRESS=    0.0 pullay stress

  Mass of Ions in am
   POMASS =  55.85
  Ionic Valenz
   ZVAL   =   8.00
  Atomic Wigner-Seitz radii
  virtual crystal weights
   VCA    =   1.00
   NELECT =      96.0000    total number of electrons
   NUPDOWN=      -1.0000    fix difference up-down

 DOS related values:
   EMIN   =  10.00;   EMAX   =-10.00  energy-range for DOS
   EFERMI =   0.00
   ISMEAR =     2;   SIGMA  =   0.10  broadening in eV -4-tet -1-fermi 0-gaus

 Electronic relaxation 2 (details)
   IALGO  =     68    algorithm
   LDIAG  =      T    sub-space diagonalisation (order eigenvalues)
   LSUBROT=      T    optimize rotation matrix (better conditioning)
   TURBO    =      0    0=normal 1=particle mesh
   IRESTART =      0    0=no restart 2=restart with 2 vectors
   NREBOOT  =      0    no. of reboots
   NMIN     =      0    reboot dimension
   EREF     =   0.00    reference energy to select bands
   IMIX   =      4    mixing-type and parameters
     AMIX     =   0.40;   BMIX     =  1.00
     AMIX_MAG =   1.60;   BMIX_MAG =  1.00
     AMIN     =   0.10
     WC   =   100.;   INIMIX=   1;  MIXPRE=   1;  MAXMIX= -45

 Intra band minimization:
   WEIMIN = 0.0010     energy-eigenvalue tresh-hold
   EBREAK =  0.40E-07  absolut break condition
[...]
   0.116E-05 0.454E-06 0.481E+03   -.224E-05 -.876E-06 -.481E+03   0.000E+00 -.827E-24 0.731E-01   0.240E-09 0.101E-09 -.807E-01
   -.109E-05 -.396E-06 0.481E+03   0.224E-05 0.876E-06 -.481E+03   0.000E+00 0.000E+00 0.731E-01   -.224E-09 -.514E-10 -.807E-01
   -.110E-05 0.457E-06 -.474E+03   0.225E-05 -.883E-06 0.474E+03   0.000E+00 -.165E-23 0.158E-01   0.653E-10 -.452E-10 -.247E+00
   0.117E-05 -.401E-06 -.474E+03   -.225E-05 0.883E-06 0.474E+03   0.000E+00 0.000E+00 0.158E-01   -.484E-10 0.319E-10 -.247E+00
   0.115E-05 0.451E-06 -.142E+04   -.223E-05 -.870E-06 0.142E+04   0.000E+00 0.000E+00 -.153E-02   -.743E-10 -.220E-10 -.233E+00
   -.108E-05 -.392E-06 -.142E+04   0.223E-05 0.870E-06 0.142E+04   0.000E+00 0.000E+00 -.153E-02   0.533E-10 0.105E-10 -.233E+00
   -.896E-06 0.340E-06 -.235E+04   0.187E-05 -.652E-06 0.235E+04   0.000E+00 0.000E+00 0.252E+01   0.117E-09 -.377E-10 -.803E-01
   0.975E-06 -.250E-06 -.235E+04   -.187E-05 0.652E-06 0.235E+04   0.000E+00 0.000E+00 0.252E+01   -.133E-09 0.315E-10 -.803E-01
   0.441E-06 0.418E-06 0.729E+00   0.110E-12 0.560E-13 0.227E-11   0.000E+00 -.248E-23 0.163E+00   -.128E-10 0.439E-10 -.896E+00

[...]

 Free energy of the ion-electron system (eV)
  alpha Z        PSCENC =       328.78290224
  Ewald energy   TEWEN  =     19394.03171875

[...]

  energy without entropy =      -95.77833977  energy(sigma->0) =      -95.77684853
envalues of (default mixing * dielectric matrix)
  average eigenvalue GAMMA=   0.9057
  3.3925  3.7664  2.5077  2.5077  1.6765  1.6765  1.8019  0.9109  0.9109  1.1053
  1.1053  0.8969  0.8969  0.8040  0.8040  0.8266  0.8266  0.5247  0.5247  0.4657
  0.4657  0.6131  0.6131  0.6055  0.0493  0.5049  0.5049  0.4533  0.4533  0.0962
  0.1085  0.4384  0.1570  0.1812  0.1931  0.3883  0.3883  0.2699

[...]

  energy without entropy =      -95.77582932  energy(sigma->0) =      -95.77469784
---

[...]

  energy without entropy =      -95.77561491  energy(sigma->0) =      -95.77454586
py T*S    EENTRO =         0.00015962
  eigenvalues    EBANDS =      -174.86888498
  atomic energy  EATOM  =      7131.53793727
  free energy    TOTEN  =       -90.28923933 eV

[...]

  energy without entropy =      -90.29395087  energy(sigma->0) =      -90.29376104
force                 convergence-correction
   0.970E-06 0.336E-06 0.235E+04   -.186E-05 -.645E-06 -.234E+04   0.000E+00 -.199E-22 -.253E+01   0.766E-10 0.189E-10 0.296E-01
   -.892E-06 -.244E-06 0.235E+04   0.186E-05 0.645E-06 -.234E+04   0.000E+00 -.265E-22 -.253E+01   -.669E-10 -.159E-10 0.296E-01
   -.108E-05 0.445E-06 0.142E+04   0.221E-05 -.859E-06 -.142E+04   0.000E+00 0.000E+00 -.120E-02   -.184E-09 0.766E-10 -.531E-01
   0.115E-05 -.383E-06 0.142E+04   -.221E-05 0.859E-06 -.142E+04   0.000E+00 0.000E+00 -.120E-02   0.188E-09 -.515E-10 -.531E-01
   0.116E-05 0.455E-06 0.480E+03   -.225E-05 -.878E-06 -.480E+03   0.000E+00 0.662E-23 0.499E-01   0.189E-09 0.506E-10 -.211E+00
   -.109E-05 -.397E-06 0.480E+03   0.225E-05 0.878E-06 -.480E+03   0.000E+00 0.000E+00 0.499E-01   -.154E-09 0.106E-10 -.211E+00
   -.110E-05 0.456E-06 -.475E+03   0.225E-05 -.880E-06 0.475E+03   0.000E+00 -.132E-22 -.376E-02   0.192E-09 -.666E-10 -.192E+00
   0.117E-05 -.399E-06 -.475E+03   -.225E-05 0.880E-06 0.475E+03   0.000E+00 0.000E+00 -.376E-02   -.224E-09 -.121E-11 -.192E+00
   0.115E-05 0.451E-06 -.142E+04   -.223E-05 -.870E-06 0.142E+04   0.000E+00 0.132E-22 -.728E-02   -.711E-10 -.330E-10 -.516E-01
   -.108E-05 -.392E-06 -.142E+04   0.223E-05 0.870E-06 0.142E+04   0.000E+00 0.132E-22 -.728E-02   0.705E-10 0.401E-10 -.516E-01
   -.896E-06 0.341E-06 -.235E+04   0.187E-05 -.654E-06 0.235E+04   0.000E+00 0.000E+00 0.252E+01   0.491E-10 -.170E-10 0.730E-02
   0.975E-06 -.251E-06 -.235E+04   -.187E-05 0.654E-06 0.235E+04   0.000E+00 -.132E-22 0.252E+01   -.713E-10 -.613E-12 0.730E-02
   0.441E-06 0.418E-06 0.894E+00   0.110E-12 0.560E-13 0.455E-12   0.000E+00 -.397E-22 0.463E-01   -.509E-11 0.111E-10 -.943E+00

[...]

 Free energy of the ion-electron system (eV)
  alpha Z        PSCENC =       328.78290224

[...]

  energy without entropy =      -95.77592522  energy(sigma->0) =      -95.77489547
r this iteration     100.00

[...]

  energy without entropy =      -95.77568686  energy(sigma->0) =      -95.77461639
 =         0.01067827
  eigenvalues    EBANDS =      -174.40584980
  atomic energy  EATOM  =      7131.53793727
  free energy    TOTEN  =       -90.32860686 eV

[...]

  FORCE on cell =-STRESS in cart. coord.  units (eV):
  Direction    XX          YY          ZZ          XY          YZ          ZX

[...]

 d Force = 0.4403761E-05[ 0.152E-05, 0.729E-05]  d Energy = 0.7005076E-04-0.656E-04
 d Force = 0.1729464E+01[ 0.173E+01, 0.173E+01]  d Ewald  = 0.1729464E+01-0.313E-08

[...]

  FORCE on cell =-STRESS in cart. coord.  units (eV):
  Direction    XX          YY          ZZ          XY          YZ          ZX
  Alpha Z   328.78290   328.78290   328.78290
  Ewald   24024.11076 24024.11076-28654.19845    -0.00000    -0.00000    -0.00000
  Hartree 25956.14852 25956.14852-25145.57823    -0.00000    -0.00000    -0.00000
  E(xc)    -472.12907  -472.12907  -471.60620     0.00000     0.00000     0.00000
  Local  -50857.68408-50857.68408 52939.39518    -0.00000    -0.00000    -0.00000
  n-local  -305.22025  -316.85700  -312.00367     0.27734     0.00000    -0.00000
  augment   466.94554   466.94554   459.93033     0.00000     0.00000     0.00000
  Kinetic   871.17907   865.51894   864.04413     0.86724    -0.00000     0.00000
  Fock        0.00000     0.00000     0.00000     0.00000     0.00000     0.00000
  Total       3.48494     3.48494     8.76601     0.00000     0.00000     0.00000
  in kB      18.44537    18.44537    46.39749     0.00000     0.00000     0.00000

 VOLUME and BASIS-vectors are now :
  energy-cutoff  :      350.00
  volume of cell :      302.70
      direct lattice vectors                 reciprocal lattice vectors
     3.986512170  0.000000000  0.000000000     0.250845842  0.000000000  0.000000000
     0.000000000  3.986512170  0.000000000     0.000000000  0.250845842  0.000000000
     0.000000000  0.000000000 19.047224470     0.000000000  0.000000000  0.052501088

[...]

 d Force = 0.4490614E-03[-0.273E-03, 0.117E-02]  d Energy =-0.1170565E+00 0.118E+00
 d Force =-0.4801536E+01[-0.480E+01,-0.480E+01]  d Ewald  =-0.4801537E+01 0.927E-06

[...]

 eigenvalue-minimisations  :   948

[...]

 eigenvalue-minimisations  :   779
 total energy-change (2. order) :-0.7230626E+00  (-0.1112076E+00)
 number of electron      96.0000787 magnetization      12.1232050

[...]

 Free energy of the ion-electron system (eV)
  alpha Z        PSCENC =       403.18038838
  Ewald energy   TEWEN  =     22340.93250541
  -1/2 Hartree   DENC   =    -29806.57186192
  -exchange  EXHF       =         0.00000000
  -V(xc)+E(xc)   XCENC  =        51.29174022
  PAW double counting   =      8572.65549249    -8682.16671905
  entropy T*S    EENTRO =         0.00160437
  eigenvalues    EBANDS =      -106.63563514
  atomic energy  EATOM  =      7131.53793727

 eigenvalue-minimisations  :   763
 total energy-change (2. order) : 0.4442420E+00  (-0.4112600E-01)

[...]

 average (electrostatic) potential at core
  the test charge radii are     1.0103
  (the norm of the test charge is              1.0000)
       1 -47.9552       2 -47.9552       3 -48.0246       4 -48.0246       5 -48.1131
       6 -48.1131       7 -48.1173       8 -48.1173       9 -48.0356      10 -48.0356
      11 -47.9588      12 -47.9588

 E-fermi :   1.2093     XC(G=0):  -8.0671     alpha+bet : -7.5353

[...]

  length of vectors
     3.986512170  2.818889790 21.966280420     0.250845842  0.354749591  0.045524321

[...]

 Conjugate gradient step on ions:
 trial-energy change:   -0.000115  1 .order   -0.000060   -0.000078   -0.000043
  (g-gl).g = 0.825E-04      g.g   = 0.744E-04  gl.gl    = 0.215E-03
 g(Force)  = 0.744E-04   g(Stress)= 0.000E+00 ortho     =-0.528E-05
 gamma     =   0.38341
 trial     =   1.08024
 opt step  =   1.19605  (harmonic =   2.38593) maximal distance =0.00027334
 next E    =   -95.774377   (d E  =  -0.00012)

 FEWALD executed in parallel

[...]

  energy without entropy =      -95.77579133  energy(sigma->0) =      -95.77473437
rgy   TEWEN  =     19391.63117121
  -1/2 Hartree   DENC   =    -26712.66747997
  -exchange  EXHF       =         0.00000000
  -V(xc)+E(xc)   XCENC  =        46.32157643
  PAW double counting   =      8320.60660310    -8428.96690356
  entropy T*S    EENTRO =         0.00610120
  eigenvalues    EBANDS =      -167.68312262
  atomic energy  EATOM  =      7131.53793727
  free energy    TOTEN  =       -90.43121470 eV

[...]

  energy without entropy =      -95.77583495  energy(sigma->0) =      -95.77475453
 energy(sigma->0) =      -90.48063637

[...]

 spin component 2

[...]

 k-point   4 :       0.3333    0.3333    0.0000
  band No.  band energies     occupation
      1      -4.0354      1.00000
      2      -3.5807      1.00000
      3      -2.9539      1.00000
      4      -2.2250      1.00000
      5      -2.1486      1.00000
      6      -2.1395      1.00000
      7      -1.9341      1.00000
      8      -1.7262      1.00000
      9      -1.5341      1.00000
     10      -1.3291      1.00000
     11      -1.1435      1.00000
     12      -1.1388      1.00000
     13      -0.6923      1.00000
     14      -0.5863      1.00000
     15      -0.5721      1.00000
     16      -0.5460      1.00000
     17      -0.4915      1.00000
     18      -0.4072      1.00000
     19      -0.3844      1.00000
     20      -0.2833      1.00000
     21      -0.2448      1.00000
     22      -0.1018      1.00000
     23      -0.0912      1.00000
     24      -0.0277      1.00000
     25       0.0359      1.00000
     26       0.0856      1.00000
     27       0.0950      1.00000
     28       0.1008      1.00000
     29       0.2718      1.00000
     30       0.3167      1.00000
     31       0.3540      1.00000
     32       0.3907      1.00000
     33       0.8018      1.00000
     34       0.8257      1.00000
     35       0.8833      0.99992
     36       0.9138      0.99964
     37       1.9744      0.00000
     38       1.9814      0.00000
     39       2.1749      0.00000
     40       2.2535      0.00000
     41       2.3678      0.00000
     42       2.4249      0.00000
     43       2.4788      0.00000
     44       2.5502      0.00000
     45       2.5645      0.00000
     46       2.5757      0.00000
     47       2.5919      0.00000
     48       2.6971      0.00000
     49       2.7278      0.00000
     50       2.7363      0.00000
     51       2.8518      0.00000
     52       2.8642      0.00000
     53       2.9351      0.00000
     54       2.9413      0.00000
     55       2.9537      0.00000
     56       3.0355      0.00000
     57       3.0691      0.00000
     58       3.0875      0.00000
     59       3.1343      0.00000
     60       3.1459      0.00000
     61       3.2583      0.00000
     62       3.4990      0.00000
     63       3.5544      0.00000

[...]

 soft charge-density along one line, spin component           2
         0         1         2         3         4         5         6         7         8         9
 total charge-density along one line

------------------------ aborting loop because EDIFF is reached ----------------------------------------

  FORCE on cell =-STRESS in cart. coord.  units (eV):

[...]

  energy without entropy =      -90.48330517  energy(sigma->0) =      -90.48327297
  3.986512170  2.818889790 21.966280420     0.250845842  0.354749591  0.045524321

 FORCES acting on ions
    electron-ion (+dipol)            ewald-force                    non-local-force                 convergence-correction
   0.970E-06 0.336E-06 0.235E+04   -.186E-05 -.645E-06 -.234E+04   0.000E+00 0.000E+00 -.253E+01   0.825E-10 0.261E-10 0.683E-01
   -.892E-06 -.244E-06 0.235E+04   0.186E-05 0.645E-06 -.234E+04   0.000E+00 -.662E-23 -.253E+01   -.756E-10 -.212E-10 0.683E-01
   -.108E-05 0.446E-06 0.142E+04   0.221E-05 -.859E-06 -.142E+04   0.000E+00 -.620E-23 -.914E-03   -.169E-09 0.697E-10 -.553E-01
   0.115E-05 -.383E-06 0.142E+04   -.221E-05 0.859E-06 -.142E+04   0.000E+00 0.000E+00 -.914E-03   0.175E-09 -.438E-10 -.553E-01
   0.116E-05 0.455E-06 0.480E+03   -.225E-05 -.878E-06 -.480E+03   0.000E+00 0.000E+00 0.574E-01   0.126E-09 0.477E-10 -.192E+00
   -.109E-05 -.397E-06 0.480E+03   0.225E-05 0.878E-06 -.480E+03   0.000E+00 0.000E+00 0.574E-01   -.111E-09 -.234E-10 -.192E+00
   -.110E-05 0.456E-06 -.475E+03   0.225E-05 -.880E-06 0.475E+03   0.000E+00 -.132E-22 -.806E-03   -.512E-12 0.102E-12 -.259E+00
   0.117E-05 -.399E-06 -.475E+03   -.225E-05 0.880E-06 0.475E+03   0.000E+00 -.265E-22 -.806E-03   0.293E-11 0.154E-11 -.259E+00
   0.115E-05 0.451E-06 -.142E+04   -.222E-05 -.870E-06 0.142E+04   0.000E+00 0.000E+00 0.363E-02   -.149E-09 -.601E-10 -.213E+00
   -.108E-05 -.391E-06 -.142E+04   0.222E-05 0.870E-06 0.142E+04   0.000E+00 0.000E+00 0.363E-02   0.136E-09 0.333E-10 -.213E+00
   -.896E-06 0.340E-06 -.235E+04   0.187E-05 -.653E-06 0.235E+04   0.000E+00 0.000E+00 0.251E+01   0.203E-09 -.771E-10 -.190E-01
   0.975E-06 -.250E-06 -.235E+04   -.187E-05 0.653E-06 0.235E+04   0.000E+00 0.000E+00 0.251E+01   -.215E-09 0.437E-10 -.190E-01
   0.441E-06 0.418E-06 0.125E+01   0.110E-12 0.560E-13 -.909E-12   0.000E+00 -.525E-22 0.855E-01   0.562E-11 -.359E-11 -.134E+01

 POSITION                                       TOTAL-FORCE (eV/Angst)
      0.00000      0.00000      0.00000         0.000000      0.000000      0.059484
      1.99326      1.40944      0.00000         0.000000      0.000000      0.059484
      1.99326      0.00000      1.99326         0.000000      0.000000     -0.049204
      0.00000      1.40944      1.99326         0.000000      0.000000     -0.049204
      0.00000      0.00000      3.98889         0.000000      0.000000     -0.000065
      1.99326      1.40944      3.98889         0.000000      0.000000     -0.000065
      1.99326      0.00000      5.95001         0.000000      0.000000     -0.009104
      0.00000      1.40944      5.95001         0.000000      0.000000     -0.009104
      0.00000      0.00000      7.94038         0.000000      0.000000     -0.008906
      1.99326      1.40944      7.94038         0.000000      0.000000     -0.008906
      1.99326      0.00000      9.91854         0.000000      0.000000      0.007796
      0.00000      1.40944      9.91854         0.000000      0.000000      0.007796
    total drift:                                0.000000      0.000000      0.000833

  FREE ENERGIE OF THE ION-ELECTRON SYSTEM (eV)
  free  energy   TOTEN  =       -95.77439439 eV

  energy  without entropy=      -95.77583495  energy(sigma->0) =      -95.77475453

 d Force = 0.4229780E-05[ 0.387E-05, 0.459E-05]  d Energy = 0.1961005E-04-0.154E-04
 d Force =-0.1477053E+00[-0.148E+00,-0.148E+00]  d Ewald  =-0.1477053E+00-0.327E-10

 reached required accuracy - stopping structural energy minimisation

[...]

 eigenvalue-minimisations  :   901
 total energy-change (2. order) : 0.2479700E-02  (-0.2262124E-03)
 number of electron      96.0000779 magnetization      12.4756235
 augmentation part       49.9350869 magnetization       8.8254089

[...]

 eigenvalue-minimisations  :   798
 total energy-change (2. order) :-0.2402771E-01  (-0.1286831E-02)
 number of electron      96.0000776 magnetization      13.2584100
 augmentation part       49.9220197 magnetization       9.6082363

 Broyden mixing:
  rms(total) = 0.38345E+00    rms(broyden)= 0.38343E+00
  rms(prec ) = 0.47921E+00
  weight for this iteration     100.00

 eigenvalues of (default mixing * dielectric matrix)
  average eigenvalue GAMMA=   1.2416
  6.9687  6.9687  4.0444  4.0444  1.7914  1.7914  1.4864  1.4864  0.9917  0.9917
  1.0453  1.0453  1.0453  0.8607  0.8607  0.3597  0.7250  0.7250  0.6590  0.6590
  0.5292  0.5292  0.0453  0.1047  0.1215  0.1491  0.1491  0.4762  0.4762  0.5724
  0.5724  0.5402  0.5402  0.4727  0.4727  0.3981

 Free energy of the ion-electron system (eV)
  alpha Z        PSCENC =       328.78290224
  Ewald energy   TEWEN  =     19391.63117121
  -1/2 Hartree   DENC   =    -26713.23684254
  -exchange  EXHF       =         0.00000000
  -V(xc)+E(xc)   XCENC  =        46.40096590
  PAW double counting   =      8296.41177676    -8403.89791455
  entropy T*S    EENTRO =         0.02173508
  eigenvalues    EBANDS =      -168.07488858
  atomic energy  EATOM  =      7131.53793727
  free energy    TOTEN  =       -90.42315720 eV

  energy without entropy =      -90.44489228  energy(sigma->0) =      -90.42859097

----------------------------------------- Iteration    9(  38)  ---------------------------------------