 vasp.5.3.3 18Dez12 (build Sep  7 2015 22:32:56) complex

 executed on             LinuxIFC date 2022.12.22  15:34:18

 INCAR:
 POTCAR:    PAW_PBE Nb_pv 08Apr2002
 POTCAR:    PAW_PBE O 08Apr2002
 POTCAR:    PAW_PBE Nb_pv 08Apr2002
   VRHFIN =Nb: 4p5s4d

   TITEL  = PAW_PBE Nb_pv 08Apr2002
   POMASS =   92.000; ZVAL   =   11.000    mass and valenz
   ENMAX  =  208.608; ENMIN  =  156.456 eV

 POTCAR:    PAW_PBE O 08Apr2002
   VRHFIN =O: s2p4

   TITEL  = PAW_PBE O 08Apr2002
   POMASS =   16.000; ZVAL   =    6.000    mass and valenz
   ENMAX  =  400.000; ENMIN  =  300.000 eV

  PAW_PBE Nb_pv 08Apr2002               :
  PAW_PBE O 08Apr2002                   :

 POSCAR: Nb4 O10
  positions in direct lattice
 exchange correlation table for  LEXCH =        8
   RHO(1)=    0.500       N(1)  =     2000
   RHO(2)=  100.500       N(2)  =     4000

 ion  position               nearest neighbor table
   1  0.854  0.000  0.933-   5 1.80   7 1.93   9 2.02   9 2.02   8 2.23   5 2.26   2 3.39   2 3.39

   2  0.646  0.500  0.067-   6 1.80  12 1.93   8 2.02   8 2.02   9 2.23   6 2.26   1 3.39   1 3.39

[...]

   5  0.852  0.000  0.489-   1 1.80   1 2.26
   6  0.648  0.500  0.511-   2 1.80   2 2.26
   7  0.000  0.000  0.000-   1 1.93   4 1.93
   8  0.685  0.000  0.003-   2 2.02   2 2.02   1 2.23
   9  0.815  0.500  0.997-   1 2.02   1 2.02   2 2.23
  10  0.352  0.500  0.489-   3 1.80   3 2.26
  11  0.148  0.000  0.511-   4 1.80   4 2.26
  12  0.500  0.500  0.000-   2 1.93   3 1.93
  13  0.185  0.500  0.003-   4 2.02   4 2.02   3 2.23
  14  0.315  0.000  0.997-   3 2.02   3 2.02   4 2.23

  LATTYP: Found a simple monoclinic cell.
 ALAT       =    13.6570737603
 B/A-ratio  =     0.2835695309
 C/A-ratio  =     1.1214833860
 COS(beta)  =    -0.9671598041

  Lattice vectors:

 A1 = (   0.0000000000, -13.0394500000,   4.0605920000)
 A2 = (  -3.8727300000,   0.0000000000,   0.0000000000)
 A3 = (   0.0000000000,  12.9858300000,  -8.1211840000)

Analysis of symmetry for initial positions (statically):
 Subroutine PRICEL returns following result:

  LATTYP: Found a base centered monoclinic cell.
 ALAT       =    13.0930700000
 B/A-ratio  =     0.2957847166
 C/A-ratio  =     1.0430765100
 COS(beta)  =    -0.9155651686

[...]

   2 primitive cells build up your supercell.

 Routine SETGRP: Setting up the symmetry group for a
 simple monoclinic supercell.

 Subroutine GETGRP returns: Found  4 space group operations
 (whereof  4 operations were pure point group operations)
 out of a pool of  4 trial point group operations.

The static configuration has the point symmetry C_2h.

Analysis of symmetry for dynamics (positions and initial velocities):
 Subroutine PRICEL returns following result:

[...]

The dynamic configuration has the point symmetry C_2h.

Analysis of constrained symmetry for selective dynamics:
 Subroutine PRICEL returns following result:

  LATTYP: Found a base centered monoclinic cell.
 ALAT       =    13.0930700000
 B/A-ratio  =     0.2957847166
 C/A-ratio  =     1.0430765100
 COS(beta)  =    -0.9155651686

  Lattice vectors:

 A1 = (   1.9363650000,   6.5465350000,   0.0000000000)
 A2 = (  -1.9363650000,   6.5465350000,   0.0000000000)
 A3 = (  -0.0000000000, -13.0394500000,   4.0605920000)

   2 primitive cells build up your supercell.

 Routine SETGRP: Setting up the symmetry group for a
 simple monoclinic supercell.

 Subroutine GETGRP returns: Found  4 space group operations
 (whereof  4 operations were pure point group operations)
 out of a pool of  4 trial point group operations.

The constrained configuration has the point symmetry C_2h.

Analysis of magnetic symmetry:

 Subroutine MAGSYM returns: Found  4 space group operations
 (whereof  4 operations were pure point group operations)
 out of a pool of  4 trial space group operations
 (whereof  4 operations were pure point group operations)
 and found also     2 'primitive' translations

The magnetic configuration has the point symmetry C_2h.

 irot  :   1
 isymop:   1   0   0
           0   1   0
           0   0   1

 gtrans:     0.0000000     0.0000000     0.0000000

 ptrans:     0.0000000     0.0000000     0.0000000
 rotmap:
 (   1->   1)  (   2->   2)  (   3->   3)  (   4->   4)  (   5->   5)
 (   6->   6)  (   7->   7)  (   8->   8)  (   9->   9)  (  10->  10)
 (  11->  11)  (  12->  12)  (  13->  13)  (  14->  14)

[...]

 irot  :   4
 isymop:   1   0   0
           0  -1   0
           0   0   1

 gtrans:     0.0000000     0.0000000     0.0000000

[...]

 ptrans:     0.5000000     0.5000000     0.0000000
 rotmap:
 (   1->   3)  (   2->   4)  (   3->   1)  (   4->   2)  (   5->  10)
 (   6->  11)  (   7->  12)  (   8->  13)  (   9->  14)  (  10->   5)
 (  11->   6)  (  12->   7)  (  13->   8)  (  14->   9)

 KPOINTS: K-Points

Automatic generation of k-mesh.
Space group operators:
 irot       det(A)        alpha          n_x          n_y          n_z        tau_x        tau_y        tau_z
    1     1.000000     0.000001     1.000000     0.000000     0.000000     0.000000     0.000000     0.000000
    2    -1.000000     0.000001     1.000000     0.000000     0.000000     0.000000     0.000000     0.000000
    3     1.000000   180.000000     1.000000     0.000000     0.000000     0.000000     0.000000     0.000000
    4    -1.000000   180.000000     1.000000     0.000000     0.000000     0.000000     0.000000     0.000000

 Subroutine IBZKPT returns following result:

 Found     39 irreducible k-points:

 Following reciprocal coordinates:
            Coordinates               Weight
  0.000000  0.000000  0.000000      1.000000
  0.200000  0.000000  0.000000      2.000000
  0.400000  0.000000  0.000000      2.000000
  0.000000  0.200000  0.000000      2.000000
  0.200000  0.200000  0.000000      4.000000
  0.400000  0.200000  0.000000      4.000000
  0.000000  0.400000  0.000000      2.000000
  0.200000  0.400000  0.000000      4.000000
  0.400000  0.400000  0.000000      4.000000
  0.000000  0.000000  0.200000      2.000000
  0.200000  0.000000  0.200000      2.000000
  0.400000  0.000000  0.200000      2.000000
 -0.400000  0.000000  0.200000      2.000000
 -0.200000  0.000000  0.200000      2.000000
  0.000000  0.200000  0.200000      4.000000
  0.200000  0.200000  0.200000      4.000000
  0.400000  0.200000  0.200000      4.000000
 -0.400000  0.200000  0.200000      4.000000
 -0.200000  0.200000  0.200000      4.000000
  0.000000  0.400000  0.200000      4.000000
  0.200000  0.400000  0.200000      4.000000
  0.400000  0.400000  0.200000      4.000000
 -0.400000  0.400000  0.200000      4.000000
 -0.200000  0.400000  0.200000      4.000000
  0.000000  0.000000  0.400000      2.000000
  0.200000  0.000000  0.400000      2.000000
  0.400000  0.000000  0.400000      2.000000
 -0.400000  0.000000  0.400000      2.000000
 -0.200000  0.000000  0.400000      2.000000
  0.000000  0.200000  0.400000      4.000000
  0.200000  0.200000  0.400000      4.000000
  0.400000  0.200000  0.400000      4.000000
 -0.400000  0.200000  0.400000      4.000000
 -0.200000  0.200000  0.400000      4.000000
  0.000000  0.400000  0.400000      4.000000
  0.200000  0.400000  0.400000      4.000000
  0.400000  0.400000  0.400000      4.000000
 -0.400000  0.400000  0.400000      4.000000
 -0.200000  0.400000  0.400000      4.000000

 Following cartesian coordinates:
            Coordinates               Weight
  0.000000  0.000000  0.000000      1.000000
  0.000000  0.015275 -0.000202      2.000000
  0.000000  0.030551 -0.000403      2.000000
  0.051643  0.000000  0.000000      2.000000
  0.051643  0.015275 -0.000202      4.000000
  0.051643  0.030551 -0.000403      4.000000
  0.103286  0.000000  0.000000      2.000000
  0.103286  0.015275 -0.000202      4.000000
  0.103286  0.030551 -0.000403      4.000000
  0.000000  0.000000 -0.049254      2.000000
  0.000000  0.015275 -0.049456      2.000000
  0.000000  0.030551 -0.049657      2.000000
  0.000000 -0.030551 -0.048850      2.000000
  0.000000 -0.015275 -0.049052      2.000000
  0.051643  0.000000 -0.049254      4.000000
  0.051643  0.015275 -0.049456      4.000000
  0.051643  0.030551 -0.049657      4.000000
  0.051643 -0.030551 -0.048850      4.000000
  0.051643 -0.015275 -0.049052      4.000000
  0.103286  0.000000 -0.049254      4.000000
  0.103286  0.015275 -0.049456      4.000000
  0.103286  0.030551 -0.049657      4.000000
  0.103286 -0.030551 -0.048850      4.000000
  0.103286 -0.015275 -0.049052      4.000000
  0.000000  0.000000 -0.098508      2.000000
  0.000000  0.015275 -0.098710      2.000000
  0.000000  0.030551 -0.098911      2.000000
  0.000000 -0.030551 -0.098104      2.000000
  0.000000 -0.015275 -0.098306      2.000000
  0.051643  0.000000 -0.098508      4.000000
  0.051643  0.015275 -0.098710      4.000000
  0.051643  0.030551 -0.098911      4.000000
  0.051643 -0.030551 -0.098104      4.000000
  0.051643 -0.015275 -0.098306      4.000000
  0.103286  0.000000 -0.098508      4.000000
  0.103286  0.015275 -0.098710      4.000000
  0.103286  0.030551 -0.098911      4.000000
  0.103286 -0.030551 -0.098104      4.000000
  0.103286 -0.015275 -0.098306      4.000000

 I would recommend the setting:
   dimension x,y,z NGX =    60 NGY =   18 NGZ =   19
 SYSTEM =  Crystal
 POSCAR =  Nb4 O10

 Startparameter for this run:
   NWRITE =      2    write-flag & timer
   PREC   = normal    normal or accurate (medium, high low for compatibility)
   ISTART =      0    job   : 0-new  1-cont  2-samecut
   ICHARG =      2    charge: 1-file 2-atom 10-const
   ISPIN  =      2    spin polarized calculation?
   LNONCOLLINEAR =      F non collinear calculations
   LSORBIT =      F    spin-orbit coupling
   INIWAV =      1    electr: 0-lowe 1-rand  2-diag
   LASPH  =      F    aspherical Exc in radial PAW
   METAGGA=      F    non-selfconsistent MetaGGA calc.

 Electronic Relaxation 1
   ENCUT  =  350.0 eV  25.72 Ry    5.07 a.u.  19.97  5.91  6.19*2*pi/ulx,y,z
   ENINI  =  350.0     initial cutoff
   ENAUG  =  605.4 eV  augmentation charge cutoff
   NELM   =     60;   NELMIN=  4; NELMDL=-10     # of ELM steps
   EDIFF  = 0.1E-03   stopping-criterion for ELM
   LREAL  =      F    real-space projection
   NLSPLINE    = F    spline interpolate recip. space projectors
   LCOMPAT=      F    compatible to vasp.4.4
   GGA_COMPAT  = T    GGA compatible to vasp.4.4-vasp.4.6
   LMAXPAW     = -100 max onsite density
   LMAXMIX     =    2 max onsite mixed and CHGCAR
   VOSKOWN=      0    Vosko Wilk Nusair interpolation
   ROPT   =    0.00000   0.00000
 Ionic relaxation
   EDIFFG = -.1E-01   stopping-criterion for IOM
   NSW    =    300    number of steps for IOM
   NBLOCK =      1;   KBLOCK =    300    inner block; outer block
   IBRION =      2    ionic relax: 0-MD 1-quasi-New 2-CG
   NFREE  =      1    steps in history (QN), initial steepest desc. (CG)
   ISIF   =      2    stress and relaxation
   IWAVPR =     11    prediction:  0-non 1-charg 2-wave 3-comb
   ISYM   =      2    0-nonsym 1-usesym 2-fastsym
   LCORR  =      T    Harris-Foulkes like correction to forces

   POTIM  = 0.5000    time-step for ionic-motion
   TEIN   =    0.0    initial temperature
   TEBEG  =    0.0;   TEEND  =   0.0 temperature during run
[...]
   0.384E-11 -.198E+03 0.228E+02   -.501E-14 0.198E+03 -.250E+02   -.139E-16 0.361E+00 0.223E+01   -.492E-13 -.567E-01 0.132E-01
   -.167E-13 0.198E+03 -.228E+02   0.122E-13 -.198E+03 0.250E+02   0.139E-16 -.361E+00 -.223E+01   0.974E-13 0.567E-01 -.132E-01
   -.135E-13 -.105E+03 -.879E+02   -.718E-16 0.105E+03 0.103E+03   -.139E-16 -.150E+00 -.147E+02   -.336E-13 -.272E-01 -.122E-01
   0.443E-11 0.105E+03 0.879E+02   0.377E-15 -.105E+03 -.103E+03   -.694E-17 0.150E+00 0.147E+02   0.105E-12 0.272E-01 0.122E-01
   -.246E-14 0.154E-12 -.655E-14   -.204E-14 -.128E-12 0.755E-14   0.000E+00 0.764E-21 -.424E-21   0.344E-13 0.161E-13 0.266E-13
   0.106E-13 0.126E+03 -.206E+02   -.602E-14 -.128E+03 0.242E+02   0.173E-17 0.183E+01 -.365E+01   -.987E-13 0.195E-01 -.245E-02
   0.316E-11 -.126E+03 0.206E+02   -.145E-13 0.128E+03 -.242E+02   -.867E-18 -.183E+01 0.365E+01   0.542E-13 -.195E-01 0.245E-02
   -.943E-12 -.105E+03 -.879E+02   -.118E-15 0.105E+03 0.103E+03   -.139E-16 -.150E+00 -.147E+02   -.446E-13 -.272E-01 -.122E-01
   -.121E-13 0.105E+03 0.879E+02   0.846E-15 -.105E+03 -.103E+03   -.694E-17 0.150E+00 0.147E+02   0.109E-12 0.272E-01 0.122E-01
   0.480E-11 0.483E-12 0.278E-11   -.110E-14 -.853E-13 0.688E-14   0.000E+00 -.101E-20 0.000E+00   0.384E-13 0.108E-12 0.227E-13
   -.387E-12 0.126E+03 -.206E+02   -.506E-14 -.128E+03 0.242E+02   0.173E-17 0.183E+01 -.365E+01   -.831E-13 0.195E-01 -.245E-02
   0.285E-13 -.126E+03 0.206E+02   -.141E-13 0.128E+03 -.242E+02   0.867E-18 -.183E+01 0.365E+01   0.521E-13 -.195E-01 0.245E-02
   0.132E-10 0.458E-11 -.444E-11   -.273E-13 -.185E-12 0.142E-13   -.520E-16 0.444E-15 0.000E+00   0.263E-12 -.488E-12 0.122E-12

 POSITION                                       TOTAL-FORCE (eV/Angst)
      0.00000     11.12937     -3.78766         0.000000      0.052945      0.032720
      1.93636      8.45661     -0.27294        -0.000000     -0.052945     -0.032720
      1.93636      4.58284     -3.78766         0.000000      0.052945      0.032720
      0.00000      1.91008     -0.27294         0.000000     -0.052945     -0.032720
      0.00000     11.13452     -1.98712        -0.000000     -0.039271     -0.049579
      1.93636      8.45147     -2.07348         0.000000      0.039271      0.049579
      0.00000      0.00000      0.00000        -0.000000     -0.000000     -0.000000
      0.00000      8.96902     -0.01253        -0.000000      0.003857     -0.022997
      1.93636     10.61697     -4.04807        -0.000000     -0.003857      0.022997
      1.93636      4.58798     -1.98712        -0.000000     -0.039271     -0.049579
      0.00000      1.90493     -2.07348        -0.000000      0.039271      0.049579
      1.93636      6.54654      0.00000        -0.000000     -0.000000     -0.000000
      1.93636      2.42248     -0.01253         0.000000      0.003857     -0.022997
      0.00000      4.07043     -4.04807        -0.000000     -0.003857      0.022997
    total drift:                                0.000000      0.000000     -0.000000

  FREE ENERGIE OF THE ION-ELECTRON SYSTEM (eV)
  free  energy   TOTEN  =      -125.86320197 eV

  energy  without entropy=     -125.86768333  energy(sigma->0) =     -125.86432231

[...]

 d Force = 0.2081453E-03[-0.121E-02, 0.162E-02]  d Energy = 0.1810516E-03 0.271E-04
 d Force =-0.1341924E+00[-0.152E+00,-0.116E+00]  d Ewald  =-0.1341950E+00 0.257E-05

 Steepest descent step on ions:
 trial-energy change:   -0.000181  1 .order   -0.000208   -0.001624    0.001208
  (g-gl).g = 0.162E-02      g.g   = 0.162E-02  gl.gl    = 0.000E+00
 g(Force)  = 0.162E-02   g(Stress)= 0.000E+00 ortho     = 0.000E+00
 gamma     =   0.00000
 trial     =   1.00000
 opt step  =   0.57349  (harmonic =   0.57349) maximal distance =0.00146481
 next E    =  -125.863668   (d E  =  -0.00047)

[...]

 d Force = 0.2258180E-03[-0.636E-04, 0.515E-03]  d Energy = 0.3361728E-03-0.110E-03
 d Force = 0.6170133E-01[ 0.584E-01, 0.650E-01]  d Ewald  = 0.6169933E-01 0.200E-05

[...]

 d Force =-0.5089330E-05[-0.172E-04, 0.700E-05]  d Energy =-0.4745559E-04 0.424E-04
 d Force =-0.6457718E-02[-0.650E-02,-0.642E-02]  d Ewald  =-0.6457718E-02 0.352E-09

[...]

 d Force = 0.7164714E-05[ 0.213E-05, 0.122E-04]  d Energy = 0.7004071E-05 0.161E-06
 d Force = 0.4596941E-02[ 0.458E-02, 0.462E-02]  d Ewald  = 0.4596941E-02-0.134E-09

[...]

 d Force = 0.3316931E-03[ 0.227E-03, 0.437E-03]  d Energy = 0.3457388E-03-0.140E-04
 d Force =-0.8780538E+00[-0.877E+00,-0.879E+00]  d Ewald  =-0.8780514E+00-0.237E-05

 Conjugate gradient step on ions:
 trial-energy change:   -0.000346  1 .order   -0.000332   -0.000437   -0.000227
  (g-gl).g = 0.562E-03      g.g   = 0.498E-03  gl.gl    = 0.162E-02
 g(Force)  = 0.498E-03   g(Stress)= 0.000E+00 ortho     =-0.638E-04
 gamma     =   0.34590
 trial     =   0.91741
 opt step  =   1.90820  (harmonic =   1.90820) maximal distance =0.00445222
 next E    =  -125.864133   (d E  =  -0.00045)

[...]

 d Force = 0.1633940E-03[ 0.819E-04, 0.245E-03]  d Energy = 0.1665186E-03-0.312E-05
 d Force =-0.9455466E+00[-0.944E+00,-0.947E+00]  d Ewald  =-0.9455466E+00 0.236E-07

[...]

 Conjugate gradient step on ions:
 trial-energy change:   -0.000141  1 .order   -0.000105   -0.000487    0.000277
  (g-gl).g = 0.313E-03      g.g   = 0.583E-03  gl.gl    = 0.498E-03
 g(Force)  = 0.583E-03   g(Stress)= 0.000E+00 ortho     = 0.827E-04
 gamma     =   0.62751
 trial     =   0.76734
 opt step  =   0.48910  (harmonic =   0.48910) maximal distance =0.00119286
 next E    =  -125.864346   (d E  =  -0.00016)

[...]

 d Force =-0.4322594E-06[-0.320E-05, 0.234E-05]  d Energy = 0.4152098E-06-0.847E-06
 d Force = 0.7420846E-01[ 0.742E-01, 0.742E-01]  d Ewald  = 0.7420846E-01-0.165E-09

[...]

 eigenvalue-minimisations  :   303
 total energy-change (2. order) : 0.2890374E-08  (-0.1089056E-09)
 number of electron     103.9999626 magnetization       0.0000000
 augmentation part       22.0856732 magnetization       0.0000000

[...]

 eigenvalue-minimisations  :   305
 total energy-change (2. order) : 0.7385097E-08  ( 0.0000000E+00)
 number of electron     103.9999626 magnetization      -0.0000000
 augmentation part       22.0856743 magnetization      -0.0000000

[...]

 eigenvalue-minimisations  :   207
 total energy-change (2. order) :-0.5638867E-10  ( 0.0000000E+00)
 number of electron     103.9999626 magnetization      -0.0000000
 augmentation part       22.0856745 magnetization      -0.0000000

[...]

 d Force = 0.3456442E-07[-0.316E-07, 0.101E-06]  d Energy = 0.4457252E-07-0.100E-07
 d Force = 0.4594798E-02[ 0.459E-02, 0.459E-02]  d Ewald  = 0.4594798E-02 0.300E-10

 FEWALD executed in parallel

[...]

 eigenvalue-minimisations  :  5832
 total energy-change (2. order) :-0.8436473E-08  (-0.4375565E-08)
 number of electron     103.9999626 magnetization      -0.0000000
 augmentation part       22.0856732 magnetization       0.0000000

[...]

 Broyden mixing:
  rms(total) = 0.21098E-05    rms(broyden)= 0.21047E-05
  rms(prec ) = 0.24295E-05
  weight for this iteration     100.00

 eigenvalues of (default mixing * dielectric matrix)
  average eigenvalue GAMMA=   1.5949
  0.6969  2.4930

[...]

----------------------------------------- Iteration   16(   4)  ---------------------------------------

 eigenvalue-minimisations  :   173
 total energy-change (2. order) : 0.1691660E-09  ( 0.0000000E+00)
 number of electron     103.9999626 magnetization      -0.0000000
 augmentation part       22.0856734 magnetization       0.0000000

 Free energy of the ion-electron system (eV)
  alpha Z        PSCENC =       532.73731502
  Ewald energy   TEWEN  =     -5587.68022913
  -1/2 Hartree   DENC   =     -2752.96842165
  -exchange  EXHF       =         0.00000000
  -V(xc)+E(xc)   XCENC  =       384.85412472
  PAW double counting   =     13747.86207199   -13724.99619654
  entropy T*S    EENTRO =         0.00440636
  eigenvalues    EBANDS =     -1219.23036145
  atomic energy  EATOM  =      8493.55293326
  free energy    TOTEN  =      -125.86435741 eV

  energy without entropy =     -125.86876377  energy(sigma->0) =     -125.86545900

 average (electrostatic) potential at core
  the test charge radii are     1.2125  0.7215
  (the norm of the test charge is              1.0000)
       1 -40.6949       2 -40.6949       3 -40.6949       4 -40.6949       5 -73.7981
       6 -73.7981       7 -74.2585       8 -74.2378       9 -74.2378      10 -73.7981
      11 -73.7981      12 -74.2585      13 -74.2378      14 -74.2378

 E-fermi :   0.0733     XC(G=0):  -9.5563     alpha+bet : -8.1818

[...]

 spin component 2

[...]

 k-point  39 :      -0.2000    0.4000    0.4000
  band No.  band energies     occupation
      1     -31.1479      1.00000
      2     -31.1223      1.00000
      3     -31.1022      1.00000
      4     -31.0884      1.00000
      5     -31.0412      1.00000
      6     -31.0378      1.00000
      7     -31.0335      1.00000
      8     -31.0276      1.00000
      9     -30.9602      1.00000
     10     -30.9586      1.00000
     11     -30.9095      1.00000
     12     -30.8926      1.00000
     13     -16.7621      1.00000
     14     -16.6431      1.00000
     15     -16.4852      1.00000
     16     -16.3605      1.00000
     17     -16.1611      1.00000
     18     -16.1554      1.00000
     19     -15.4079      1.00000
     20     -15.3983      1.00000
     21     -15.3733      1.00000
     22     -15.3638      1.00000
     23      -5.0836      1.00000
     24      -5.0772      1.00000
     25      -4.6852      1.00000
     26      -4.5464      1.00000
     27      -4.4847      1.00000
     28      -4.3716      1.00000
     29      -4.2987      1.00000
     30      -4.1396      1.00000
     31      -4.0726      1.00000
     32      -4.0555      1.00000
     33      -4.0360      1.00000
     34      -3.7658      1.00000
     35      -3.6654      1.00000
     36      -3.6532      1.00000
     37      -3.3951      1.00000
     38      -3.1082      1.00000
     39      -2.9438      1.00000
     40      -2.8060      1.00000
     41      -2.4419      1.00000
     42      -2.2320      1.00000
     43      -1.9095      1.00000
     44      -1.7666      1.00000
     45      -1.4675      1.00000
     46      -1.4055      1.00000
     47      -0.3858      1.00000
     48      -0.2437      0.99987
     49      -0.1044      0.99768
     50      -0.0825      1.00702
     51       0.0027      1.02264
     52       0.0363      0.85285
     53       2.8599      0.00000
     54       2.8840      0.00000
     55       4.1249      0.00000
     56       4.1452      0.00000
     57       4.5062      0.00000
     58       4.6360      0.00000
     59       4.9332      0.00000
     60       5.1130      0.00000
     61       5.2523      0.00000
     62       5.2954      0.00000
     63       5.4992      0.00000
     64       5.5166      0.00000
     65       5.8259      0.00000
     66       6.4647      0.00000
     67       7.2693      0.00000
     68       7.9722      0.00000
     69       8.9202      0.00000

[...]

 soft charge-density along one line, spin component           2
         0         1         2         3         4         5         6         7         8         9
 total charge-density along one line

------------------------ aborting loop because EDIFF is reached ----------------------------------------

  FORCE on cell =-STRESS in cart. coord.  units (eV):
  Direction    XX          YY          ZZ          XY          YZ          ZX
  Alpha Z   532.73732   532.73732   532.73732
  Ewald   -1794.20186 -2059.59704 -1733.89456    -0.00000    47.16866    -0.00000
  Hartree  1010.96829   697.25170  1044.74832     0.00000    28.99778     0.00000
  E(xc)    -488.83704  -488.48626  -488.56198     0.00000     0.04967     0.00000
  Local    -819.87957  -242.67526  -938.63961     0.00000   -76.33410     0.00000
  n-local  -374.84164  -376.71061  -382.45614    -0.37526    -1.04178     0.37718
  augment   175.25434   175.85394   180.01276     0.00000     0.12007    -0.00000
  Kinetic  1740.38746  1743.22793  1767.15019     0.28855     0.99246     2.84825
  Fock        0.00000     0.00000     0.00000     0.00000     0.00000     0.00000
  Total     -18.41270   -18.39828   -18.90371     0.00000    -0.04724     0.00000
  in kB    -143.27815  -143.16592  -147.09893     0.00000    -0.36760     0.00000

 VOLUME and BASIS-vectors are now :
  energy-cutoff  :      350.00
  volume of cell :      205.90
      direct lattice vectors                 reciprocal lattice vectors
     0.000000000 13.093070000  0.000000000     0.000000000  0.076376281 -0.001008547
     3.872730000  0.000000000  0.000000000     0.258215781  0.000000000  0.000000000
     0.000000000 -0.053620000 -4.060592000     0.000000000  0.000000000 -0.246269509

  length of vectors
    13.093070000  3.872730000  4.060946010     0.076382940  0.258215781  0.246269509

 FORCES acting on ions
    electron-ion (+dipol)            ewald-force                    non-local-force                 convergence-correction
   0.966E-14 -.200E+03 0.239E+02   -.514E-13 0.199E+03 -.262E+02   0.694E-17 0.373E+00 0.225E+01   0.222E-13 -.337E-04 0.243E-05
   0.182E-11 0.200E+03 -.239E+02   0.337E-13 -.199E+03 0.262E+02   0.347E-16 -.373E+00 -.225E+01   -.617E-12 0.337E-04 -.243E-05
   -.152E-11 -.200E+03 0.239E+02   -.519E-13 0.199E+03 -.262E+02   0.694E-17 0.373E+00 0.225E+01   0.122E-12 -.337E-04 0.243E-05
   -.497E-13 0.200E+03 -.239E+02   0.331E-13 -.199E+03 0.262E+02   0.208E-16 -.373E+00 -.225E+01   -.182E-12 0.337E-04 -.243E-05
   0.124E-13 -.105E+03 -.888E+02   -.138E-13 0.105E+03 0.104E+03   0.694E-17 0.369E-01 -.147E+02   0.263E-12 -.299E-04 0.273E-05
   -.871E-12 0.105E+03 0.888E+02   0.116E-13 -.105E+03 -.104E+03   0.000E+00 -.369E-01 0.147E+02   -.146E-12 0.299E-04 -.273E-05
   0.206E-14 -.182E-12 0.795E-13   -.102E-14 0.568E-13 0.633E-14   0.000E+00 0.840E-25 0.414E-24   -.150E-13 0.311E-12 -.119E-12
   -.481E-13 0.126E+03 -.201E+02   -.235E-13 -.128E+03 0.236E+02   0.173E-17 0.178E+01 -.351E+01   0.457E-12 0.217E-04 -.513E-06
   -.233E-11 -.126E+03 0.201E+02   0.347E-13 0.128E+03 -.236E+02   0.173E-17 -.178E+01 0.351E+01   -.280E-13 -.217E-04 0.513E-06
   0.315E-11 -.105E+03 -.888E+02   -.138E-13 0.105E+03 0.104E+03   0.694E-17 0.369E-01 -.147E+02   0.113E-12 -.299E-04 0.273E-05
   -.843E-15 0.105E+03 0.888E+02   0.107E-13 -.105E+03 -.104E+03   -.139E-16 -.369E-01 0.147E+02   -.166E-12 0.299E-04 -.273E-05
   0.480E-11 0.504E-12 0.281E-11   -.449E-14 0.853E-13 0.844E-14   0.000E+00 -.872E-25 0.569E-24   -.725E-13 -.168E-12 0.291E-12
   0.820E-12 0.126E+03 -.201E+02   -.259E-13 -.128E+03 0.236E+02   0.000E+00 0.178E+01 -.351E+01   0.135E-12 0.217E-04 -.513E-06
   -.983E-14 -.126E+03 0.201E+02   0.347E-13 0.128E+03 -.236E+02   -.173E-17 -.178E+01 0.351E+01   -.135E-12 -.217E-04 0.513E-06
   0.579E-11 0.506E-11 -.166E-11   -.273E-13 -.369E-12 0.533E-13   0.711E-16 0.222E-15 0.000E+00   -.249E-12 -.347E-12 0.876E-12

 POSITION                                       TOTAL-FORCE (eV/Angst)
      0.00000     11.12981     -3.78808        -0.000000      0.004862      0.008009
      1.93636      8.45618     -0.27251         0.000000     -0.004862     -0.008009
      1.93636      4.58327     -3.78808         0.000000      0.004862      0.008009
      0.00000      1.90964     -0.27251         0.000000     -0.004862     -0.008009
      0.00000     11.12780     -1.98875         0.000000     -0.008613     -0.003595
      1.93636      8.45818     -2.07184        -0.000000      0.008613      0.003595
      0.00000      0.00000      0.00000         0.000000     -0.000000     -0.000000
     -0.00000      8.96883     -0.01643        -0.000000      0.001459      0.001145
      1.93636     10.61715     -4.04417        -0.000000     -0.001459     -0.001145
      1.93636      4.58127     -1.98875         0.000000     -0.008613     -0.003595
     -0.00000      1.91165     -2.07184        -0.000000      0.008613      0.003595
      1.93636      6.54654      0.00000        -0.000000     -0.000000     -0.000000
      1.93636      2.42230     -0.01643         0.000000      0.001459      0.001145
     -0.00000      4.07062     -4.04417         0.000000     -0.001459     -0.001145
    total drift:                                0.000000      0.000000     -0.000000

  FREE ENERGIE OF THE ION-ELECTRON SYSTEM (eV)
  free  energy   TOTEN  =      -125.86435741 eV

  energy  without entropy=     -125.86876377  energy(sigma->0) =     -125.86545900

 d Force = 0.3078084E-08[-0.139E-08, 0.754E-08]  d Energy = 0.6919436E-08-0.384E-08
 d Force =-0.1097014E-02[-0.110E-02,-0.110E-02]  d Ewald  =-0.1097013E-02-0.327E-10

 reached required accuracy - stopping structural energy minimisation