 vasp.5.3.3 18Dez12 (build Sep  7 2015 22:32:56) complex

 executed on             LinuxIFC date 2022.12.22  17:58:43

 INCAR:
 POTCAR:    PAW_PBE Li 17Jan2003
 POTCAR:    PAW_PBE Nb_pv 08Apr2002
 POTCAR:    PAW_PBE O 08Apr2002
 POTCAR:    PAW_PBE Li 17Jan2003
   VRHFIN =Li: s1p0

   TITEL  = PAW_PBE Li 17Jan2003
   POMASS =    7.010; ZVAL   =    1.000    mass and valenz
   ENMAX  =  140.000; ENMIN  =  100.000 eV

 POTCAR:    PAW_PBE Nb_pv 08Apr2002
   VRHFIN =Nb: 4p5s4d

   TITEL  = PAW_PBE Nb_pv 08Apr2002
   POMASS =   92.000; ZVAL   =   11.000    mass and valenz
   ENMAX  =  208.608; ENMIN  =  156.456 eV

 POTCAR:    PAW_PBE O 08Apr2002
   VRHFIN =O: s2p4

   TITEL  = PAW_PBE O 08Apr2002
   POMASS =   16.000; ZVAL   =    6.000    mass and valenz
   ENMAX  =  400.000; ENMIN  =  300.000 eV

  PAW_PBE Li 17Jan2003                  :
  PAW_PBE Nb_pv 08Apr2002               :
  PAW_PBE O 08Apr2002                   :

 POSCAR: Li6 Nb6 O18
  positions in direct lattice
 exchange correlation table for  LEXCH =        8
   RHO(1)=    0.500       N(1)  =     2000
   RHO(2)=  100.500       N(2)  =     4000

 ion  position               nearest neighbor table
   1  0.667  0.333  0.051-  17 2.09  16 2.09  18 2.09  26 2.27  25 2.27  27 2.27  12 3.08  11 3.10
                            11 3.10  11 3.10   8 3.43   8 3.43   8 3.43
   2  0.000  0.000  0.217-  13 2.09  14 2.09  15 2.09  18 2.27  17 2.27  16 2.27  11 3.08   8 3.10
                             8 3.10   8 3.10   7 3.43   7 3.43   7 3.43
   3  0.333  0.667  0.384-  22 2.09  23 2.09  24 2.09  15 2.27  13 2.27  14 2.27   8 3.08   7 3.10
                             7 3.10   7 3.10  10 3.43  10 3.43  10 3.43
   4  0.667  0.333  0.551-  19 2.09  20 2.09  21 2.09  22 2.27  23 2.27  24 2.27   7 3.08  10 3.10
                            10 3.10  10 3.10   9 3.43   9 3.43   9 3.43
   5  0.000  0.000  0.717-  28 2.09  29 2.09  30 2.09  21 2.27  19 2.27  20 2.27  10 3.08   9 3.10
                             9 3.10   9 3.10  12 3.43  12 3.43  12 3.43
   6  0.333  0.667  0.884-  25 2.09  26 2.09  27 2.09  30 2.27  29 2.27  28 2.27   9 3.08  12 3.10
                            12 3.10  12 3.10  11 3.43  11 3.43  11 3.43
   7  0.667  0.333  0.333-  15 1.90  14 1.90  13 1.90  22 2.18  23 2.18  24 2.18   4 3.08   3 3.10
                             3 3.10   3 3.10   2 3.43   2 3.43   2 3.43
   8  0.333  0.667  0.166-  17 1.90  16 1.90  18 1.90  15 2.18  13 2.18  14 2.18   3 3.08   2 3.10
                             2 3.10   2 3.10   1 3.43   1 3.43   1 3.43
   9  0.333  0.667  0.666-  19 1.90  20 1.90  21 1.90  30 2.18  29 2.18  28 2.18   6 3.08   5 3.10
                             5 3.10   5 3.10   4 3.43   4 3.43   4 3.43
  10  0.000  0.000  0.499-  24 1.90  22 1.90  23 1.90  21 2.18  19 2.18  20 2.18   5 3.08   4 3.10
                             4 3.10   4 3.10   3 3.43   3 3.43   3 3.43
  11  0.000  0.000  0.999-  27 1.90  26 1.90  25 1.90  18 2.18  17 2.18  16 2.18   2 3.08   1 3.10
                             1 3.10   1 3.10   6 3.43   6 3.43   6 3.43
  12  0.667  0.333  0.833-  30 1.90  28 1.90  29 1.90  26 2.18  25 2.18  27 2.18   1 3.08   6 3.10
                             6 3.10   6 3.10   5 3.43   5 3.43   5 3.43
  13  0.620  0.990  0.270-   7 1.90   2 2.09   8 2.18   3 2.27
  14  0.010  0.630  0.270-   7 1.90   2 2.09   8 2.18   3 2.27
  15  0.370  0.380  0.270-   7 1.90   2 2.09   8 2.18   3 2.27
  16  0.036  0.323  0.103-   8 1.90   1 2.09  11 2.18   2 2.27
  17  0.677  0.713  0.103-   8 1.90   1 2.09  11 2.18   2 2.27
  18  0.287  0.964  0.103-   8 1.90   1 2.09  11 2.18   2 2.27
  19  0.287  0.323  0.603-   9 1.90   4 2.09  10 2.18   5 2.27
  20  0.677  0.964  0.603-   9 1.90   4 2.09  10 2.18   5 2.27
  21  0.036  0.713  0.603-   9 1.90   4 2.09  10 2.18   5 2.27
  22  0.703  0.657  0.437-  10 1.90   3 2.09   7 2.18   4 2.27
  23  0.343  0.046  0.437-  10 1.90   3 2.09   7 2.18   4 2.27
  24  0.954  0.297  0.437-  10 1.90   3 2.09   7 2.18   4 2.27
  25  0.954  0.657  0.937-  11 1.90   6 2.09  12 2.18   1 2.27
  26  0.343  0.297  0.937-  11 1.90   6 2.09  12 2.18   1 2.27
  27  0.703  0.046  0.937-  11 1.90   6 2.09  12 2.18   1 2.27
  28  0.370  0.990  0.770-  12 1.90   5 2.09   9 2.18   6 2.27
  29  0.010  0.380  0.770-  12 1.90   5 2.09   9 2.18   6 2.27
  30  0.620  0.630  0.770-  12 1.90   5 2.09   9 2.18   6 2.27

  LATTYP: Found a hexagonal cell.
 ALAT       =     5.2229900112
 C/A-ratio  =     2.7052017683

  Lattice vectors:

 A1 = (   2.6114950056,  -4.5232420335,   0.0000000000)
 A2 = (   2.6114950056,   4.5232420335,   0.0000000000)
 A3 = (   0.0000000000,   0.0000000000,  14.1292418142)

Analysis of symmetry for initial positions (statically):
 Subroutine PRICEL returns following result:

  LATTYP: Found a trigonal (rhomboedric) cell.
 ALAT       =     5.5923990898
 COS(alpha) =     0.5638738957

[...]

   3 primitive cells build up your supercell.

 Routine SETGRP: Setting up the symmetry group for a
 hexagonal supercell.

 Subroutine GETGRP returns: Found  6 space group operations
 (whereof  3 operations were pure point group operations)
 out of a pool of 24 trial point group operations.

The static configuration has the point symmetry C_3 .
 The point group associated with its full space group is C_3v.

Analysis of symmetry for dynamics (positions and initial velocities):
 Subroutine PRICEL returns following result:

  LATTYP: Found a trigonal (rhomboedric) cell.
 ALAT       =     5.5923990898
 COS(alpha) =     0.5638738957

  Lattice vectors:

 A1 = (  -2.6114950056,   1.5077473445,  -4.7097472714)
 A2 = (   2.6114950056,   1.5077473445,  -4.7097472714)
 A3 = (   0.0000000000,  -3.0154946890,  -4.7097472714)

   3 primitive cells build up your supercell.

 Routine SETGRP: Setting up the symmetry group for a
 hexagonal supercell.

 Subroutine GETGRP returns: Found  6 space group operations
 (whereof  3 operations were pure point group operations)
 out of a pool of 24 trial point group operations.

The dynamic configuration has the point symmetry C_3 .
 The point group associated with its full space group is C_3v.

Analysis of magnetic symmetry:

 Subroutine MAGSYM returns: Found  6 space group operations
 (whereof  3 operations were pure point group operations)
 out of a pool of  6 trial space group operations
 (whereof  3 operations were pure point group operations)
 and found also     3 'primitive' translations

The magnetic configuration has the point symmetry C_3 .
 The point group associated with its full space group is C_3v.

 irot  :   1
 isymop:   1   0   0
           0   1   0
           0   0   1

 gtrans:     0.0000000     0.0000000     0.0000000

 ptrans:     0.0000000     0.0000000     0.0000000
 rotmap:
 (   1->   1)  (   2->   2)  (   3->   3)  (   4->   4)  (   5->   5)
 (   6->   6)  (   7->   7)  (   8->   8)  (   9->   9)  (  10->  10)
 (  11->  11)  (  12->  12)  (  13->  13)  (  14->  14)  (  15->  15)
 (  16->  16)  (  17->  17)  (  18->  18)  (  19->  19)  (  20->  20)
 (  21->  21)  (  22->  22)  (  23->  23)  (  24->  24)  (  25->  25)
 (  26->  26)  (  27->  27)  (  28->  28)  (  29->  29)  (  30->  30)

[...]

 irot  :   6
 isymop:   0  -1   0
          -1   0   0
           0   0   1

 gtrans:     0.0000000     0.0000000    -0.5000000

[...]

 ptrans:     0.6666667     0.3333333     0.3333333
 rotmap:
 (   1->   6)  (   2->   1)  (   3->   2)  (   4->   3)  (   5->   4)
 (   6->   5)  (   7->   8)  (   8->  11)  (   9->  10)  (  10->   7)
 (  11->  12)  (  12->   9)  (  13->  17)  (  14->  16)  (  15->  18)
 (  16->  26)  (  17->  25)  (  18->  27)  (  19->  23)  (  20->  22)
 (  21->  24)  (  22->  14)  (  23->  13)  (  24->  15)  (  25->  29)
 (  26->  28)  (  27->  30)  (  28->  20)  (  29->  19)  (  30->  21)

 KPOINTS: K-points

Automatic generation of k-mesh.
Space group operators:
 irot       det(A)        alpha          n_x          n_y          n_z        tau_x        tau_y        tau_z
    1     1.000000     0.000000     1.000000     0.000000     0.000000     0.000000     0.000000     0.000000
    2     1.000000   120.000000     0.000000     0.000000    -1.000000     0.000000     0.000000     0.000000
    3     1.000000   120.000000     0.000000     0.000000     1.000000     0.000000     0.000000     0.000000
    4    -1.000000   180.000000     0.500000    -0.866025     0.000000     0.000000     0.000000    -0.500000
    5    -1.000000   180.000000    -0.500000    -0.866025     0.000000    -0.000000     0.000000    -0.500000
    6    -1.000000   180.000000     1.000000     0.000000     0.000000     0.000000     0.000000    -0.500000

 Subroutine IBZKPT returns following result:

 Found      5 irreducible k-points:

 Following reciprocal coordinates:
            Coordinates               Weight
  0.000000  0.000000  0.000000      1.000000
  0.200000 -0.000000  0.000000      6.000000
  0.400000 -0.000000  0.000000      6.000000
  0.200000  0.200000  0.000000      6.000000
  0.400000  0.200000  0.000000      6.000000

 Following cartesian coordinates:
            Coordinates               Weight
  0.000000  0.000000  0.000000      1.000000
  0.038292 -0.022108  0.000000      6.000000
  0.076584 -0.044216  0.000000      6.000000
  0.076584  0.000000  0.000000      6.000000
  0.114877 -0.022108  0.000000      6.000000

 I would recommend the setting:
   dimension x,y,z NGX =    24 NGY =   24 NGZ =   65
 SYSTEM =  Crystal
 POSCAR =  Li6 Nb6 O18

 Startparameter for this run:
   NWRITE =      2    write-flag & timer
   PREC   = normal    normal or accurate (medium, high low for compatibility)
   ISTART =      0    job   : 0-new  1-cont  2-samecut
   ICHARG =      2    charge: 1-file 2-atom 10-const
   ISPIN  =      2    spin polarized calculation?
   LNONCOLLINEAR =      F non collinear calculations
   LSORBIT =      F    spin-orbit coupling
   INIWAV =      1    electr: 0-lowe 1-rand  2-diag
   LASPH  =      F    aspherical Exc in radial PAW
   METAGGA=      F    non-selfconsistent MetaGGA calc.

 Electronic Relaxation 1
   ENCUT  =  350.0 eV  25.72 Ry    5.07 a.u.   7.97  7.97 21.55*2*pi/ulx,y,z
   ENINI  =  350.0     initial cutoff
   ENAUG  =  605.4 eV  augmentation charge cutoff
   NELM   =     60;   NELMIN=  4; NELMDL=-10     # of ELM steps
   EDIFF  = 0.1E-03   stopping-criterion for ELM
   LREAL  =      F    real-space projection
   NLSPLINE    = F    spline interpolate recip. space projectors
   LCOMPAT=      F    compatible to vasp.4.4
   GGA_COMPAT  = T    GGA compatible to vasp.4.4-vasp.4.6
   LMAXPAW     = -100 max onsite density
   LMAXMIX     =    2 max onsite mixed and CHGCAR
   VOSKOWN=      0    Vosko Wilk Nusair interpolation
   ROPT   =    0.00000   0.00000   0.00000
 Ionic relaxation
   EDIFFG = -.1E-01   stopping-criterion for IOM
   NSW    =    300    number of steps for IOM
   NBLOCK =      1;   KBLOCK =    300    inner block; outer block
   IBRION =      2    ionic relax: 0-MD 1-quasi-New 2-CG
   NFREE  =      1    steps in history (QN), initial steepest desc. (CG)
   ISIF   =      3    stress and relaxation
   IWAVPR =     11    prediction:  0-non 1-charg 2-wave 3-comb
   ISYM   =      2    0-nonsym 1-usesym 2-fastsym
[...]
 gamma     =   0.54960
 trial     =   1.15046
 opt step  =   0.53094  (harmonic =   0.53094) maximal distance =0.00161970
 next E    =  -238.261487   (d E  =  -0.00187)

[...]

 d Force =-0.1957923E-05[-0.168E-04, 0.129E-04]  d Energy =-0.6819476E-04 0.662E-04
 d Force = 0.1644577E+00[ 0.164E+00, 0.165E+00]  d Ewald  = 0.6970740E-01 0.948E-01

[...]

 Broyden mixing:
  rms(total) = 0.57689E-03    rms(broyden)= 0.41354E-03
  rms(prec ) = 0.42095E-03
  weight for this iteration     100.00
  WARNING: grid for Broyden might be to small

[...]

 d Force = 0.6841663E-03[ 0.369E-03, 0.999E-03]  d Energy = 0.9878673E-03-0.304E-03
 d Force =-0.5831165E+00[-0.588E+00,-0.578E+00]  d Ewald  = 0.3825968E+01-0.441E+01

[...]

 d Force = 0.5734280E-04[ 0.577E-04, 0.570E-04]  d Energy = 0.5972446E-04-0.238E-05
 d Force =-0.9090662E-01[-0.910E-01,-0.908E-01]  d Ewald  = 0.5896568E+00-0.681E+00

[...]

 d Force = 0.3746834E-03[-0.792E-04, 0.829E-03]  d Energy = 0.6508214E-03-0.276E-03
 d Force = 0.1790215E+01[ 0.178E+01, 0.180E+01]  d Ewald  = 0.2067277E+01-0.277E+00

 Conjugate gradient step on ions:
 trial-energy change:   -0.000651  1 .order   -0.000664   -0.001140   -0.000188
  (g-gl).g = 0.109E-02      g.g   = 0.142E-02  gl.gl    = 0.211E-02
 g(Force)  = 0.833E-03   g(Stress)= 0.589E-03 ortho     = 0.167E-03
 gamma     =   0.51732
 trial     =   0.75538
 opt step  =   0.90469  (harmonic =   0.90469) maximal distance =0.00155154
 next E    =  -238.265332   (d E  =  -0.00068)

[...]

 d Force =-0.3466705E-04[-0.537E-04,-0.157E-04]  d Energy =-0.8848667E-04 0.538E-04
 d Force = 0.3514076E+00[ 0.351E+00, 0.352E+00]  d Ewald  = 0.4063003E+00-0.549E-01

[...]

 d Force = 0.1802367E-04[ 0.749E-05, 0.286E-04]  d Energy = 0.1546929E-04 0.255E-05
 d Force =-0.1868795E+00[-0.187E+00,-0.187E+00]  d Ewald  =-0.2161005E+00 0.292E-01

[...]

 d Force = 0.1286058E-03[ 0.113E-03, 0.144E-03]  d Energy =-0.6136658E-04 0.190E-03
 d Force = 0.1161198E+01[ 0.116E+01, 0.116E+01]  d Ewald  = 0.3602773E+01-0.244E+01

[...]

 d Force =-0.4444042E-04[-0.487E-04,-0.402E-04]  d Energy = 0.6058965E-04-0.105E-03
 d Force =-0.4136818E+00[-0.414E+00,-0.414E+00]  d Ewald  =-0.1283502E+01 0.870E+00

[...]

 d Force =-0.4588177E-04[-0.477E-04,-0.440E-04]  d Energy = 0.1905105E-04-0.649E-04
 d Force =-0.3738507E+00[-0.374E+00,-0.374E+00]  d Ewald  =-0.1159823E+01 0.786E+00

 FEWALD executed in parallel

[...]

 eigenvalue-minimisations  :  3238
 total energy-change (2. order) :-0.3624560E-03  (-0.3990049E-03)
 number of electron     180.0000238 magnetization       0.0000000
 augmentation part       35.2663232 magnetization      -0.0000000

[...]

 Broyden mixing:
  rms(total) = 0.51285E-02    rms(broyden)= 0.51127E-02
  rms(prec ) = 0.52068E-02
  weight for this iteration     100.00

 eigenvalues of (default mixing * dielectric matrix)
  average eigenvalue GAMMA=   0.8336
  0.8336  0.8336

[...]

----------------------------------------- Iteration   29(   4)  ---------------------------------------

 eigenvalue-minimisations  :  1410
 total energy-change (2. order) : 0.3867437E-05  (-0.4516096E-05)
 number of electron     180.0000238 magnetization       0.0000000
 augmentation part       35.2658922 magnetization      -0.0000000

 Free energy of the ion-electron system (eV)
  alpha Z        PSCENC =       983.40951057
  Ewald energy   TEWEN  =    -10920.02535996
  -1/2 Hartree   DENC   =     -3478.68868960
  -exchange  EXHF       =         0.00000000
  -V(xc)+E(xc)   XCENC  =       647.22356436
  PAW double counting   =     23045.61605706   -22987.99132670
  entropy T*S    EENTRO =         0.00839878
  eigenvalues    EBANDS =     -1595.94944841
  atomic energy  EATOM  =     14068.13175480
  free energy    TOTEN  =      -238.26553911 eV

  energy without entropy =     -238.27393789  energy(sigma->0) =     -238.26763880

 average (electrostatic) potential at core
  the test charge radii are     0.9748  1.2125  0.7215
  (the norm of the test charge is              1.0000)
       1 -24.8391       2 -24.8390       3 -24.8390       4 -24.8391       5 -24.8390
       6 -24.8390       7 -38.4794       8 -38.4794       9 -38.4794      10 -38.4794
      11 -38.4794      12 -38.4794      13 -71.7026      14 -71.7026      15 -71.7026
      16 -71.7025      17 -71.7025      18 -71.7025      19 -71.7025      20 -71.7025
      21 -71.7025      22 -71.7026      23 -71.7026      24 -71.7026      25 -71.7026
      26 -71.7026      27 -71.7026      28 -71.7026      29 -71.7026      30 -71.7026

 E-fermi :   1.6950     XC(G=0): -10.9447     alpha+bet :-11.9042

[...]

 spin component 2

[...]

 k-point   5 :       0.4000    0.2000    0.0000
  band No.  band energies     occupation
      1     -28.9443      1.00000
      2     -28.9340      1.00000
      3     -28.9312      1.00000
      4     -28.9312      1.00000
      5     -28.9001      1.00000
      6     -28.9001      1.00000
      7     -28.8958      1.00000
      8     -28.8429      1.00000
      9     -28.8429      1.00000
     10     -28.8340      1.00000
     11     -28.8340      1.00000
     12     -28.7806      1.00000
     13     -28.7547      1.00000
     14     -28.7547      1.00000
     15     -28.7229      1.00000
     16     -28.7229      1.00000
     17     -28.7156      1.00000
     18     -28.7128      1.00000
     19     -14.8751      1.00000
     20     -14.7839      1.00000
     21     -14.7839      1.00000
     22     -14.6937      1.00000
     23     -14.5747      1.00000
     24     -14.5746      1.00000
     25     -14.5026      1.00000
     26     -14.3070      1.00000
     27     -14.3070      1.00000
     28     -14.1745      1.00000
     29     -14.1745      1.00000
     30     -14.0352      1.00000
     31     -14.0352      1.00000
     32     -13.8988      1.00000
     33     -13.8419      1.00000
     34     -13.8203      1.00000
     35     -13.8072      1.00000
     36     -13.8072      1.00000
     37      -2.9245      1.00000
     38      -2.8390      1.00000
     39      -2.7922      1.00000
     40      -2.7919      1.00000
     41      -2.5674      1.00000
     42      -2.5673      1.00000
     43      -2.5311      1.00000
     44      -2.2876      1.00000
     45      -2.2876      1.00000
     46      -2.0800      1.00000
     47      -2.0101      1.00000
     48      -2.0100      1.00000
     49      -1.8289      1.00000
     50      -1.8288      1.00000
     51      -1.6513      1.00000
     52      -1.2409      1.00000
     53      -1.2408      1.00000
     54      -1.2067      1.00000
     55      -1.0712      1.00000
     56      -1.0711      1.00000
     57      -0.8664      1.00000
     58      -0.8664      1.00000
     59      -0.8506      1.00000
     60      -0.5906      1.00000
[...]
    109       9.3640      0.00000
    110       9.3641      0.00000
    111       9.3949      0.00000
    112       9.5928      0.00000
    113       9.8753      0.00000
    114       9.8754      0.00000
    115      10.2453      0.00000
    116      10.6165      0.00000
    117      10.6165      0.00000
    118      10.9261      0.00000
    119      10.9263      0.00000
    120      11.3204      0.00000
    121      12.2534      0.00000
    122      12.2537      0.00000
    123      12.5879      0.00000

[...]

 soft charge-density along one line, spin component           2
         0         1         2         3         4         5         6         7         8         9
 total charge-density along one line

------------------------ aborting loop because EDIFF is reached ----------------------------------------

  FORCE on cell =-STRESS in cart. coord.  units (eV):
  Direction    XX          YY          ZZ          XY          YZ          ZX
  Alpha Z   983.40951   983.40951   983.40951
  Ewald   -3566.04467 -3566.04467 -3787.96993    -0.00000     0.00000    -0.00000
  Hartree  1163.86945  1163.86950  1151.03117    -0.00000     0.00000    -0.00000
  E(xc)    -842.82047  -842.81893  -843.19879    -0.00004     0.00005     0.00037
  Local    -462.59770  -462.57007  -238.97277    -0.00004    -0.00000    -0.00052
  n-local  -620.53852  -619.59764  -624.78523     0.42442    -0.29467     0.31437
  augment   286.59020   286.58715   287.18281    -0.00003    -0.00001     0.00037
  Kinetic  3057.80675  3057.37986  3073.50002    -0.56276     0.79245    -0.79720
  Fock        0.00000     0.00000     0.00000     0.00000     0.00000     0.00000
  Total      -0.05536    -0.05536     0.19679     0.00000    -0.00000    -0.00000
  in kB      -0.29067    -0.29067     1.03319     0.00000    -0.00000    -0.00000

 VOLUME and BASIS-vectors are now :
  energy-cutoff  :      350.00
  volume of cell :      305.17
      direct lattice vectors                 reciprocal lattice vectors
     2.530922237 -4.383685905  0.000000000     0.197556445 -0.114059267 -0.000000000
     2.530922237  4.383685905 -0.000000000     0.197556445  0.114059267  0.000000000
     0.000000000 -0.000000000 13.752712327     0.000000000  0.000000000  0.072712929

  length of vectors
     5.061844474  5.061844474 13.752712327     0.228118534  0.228118534  0.072712929

 FORCES acting on ions
    electron-ion (+dipol)            ewald-force                    non-local-force                 convergence-correction
   0.830E-04 -.389E-05 -.618E+01   -.169E-14 -.323E-11 0.664E+01   -.130E-17 0.347E-17 -.456E+00   0.344E-07 -.323E-07 -.680E-04
   0.137E-03 0.157E-04 -.618E+01   0.230E-14 -.392E-12 0.664E+01   0.432E-18 0.347E-17 -.456E+00   -.352E-07 -.318E-07 -.680E-04
   0.816E-04 -.432E-05 -.618E+01   0.161E-13 0.463E-11 0.664E+01   0.217E-17 0.434E-17 -.456E+00   0.341E-07 -.323E-07 -.675E-04
   0.133E-03 0.161E-04 -.618E+01   -.444E-15 -.323E-11 0.664E+01   -.436E-18 0.434E-17 -.456E+00   -.353E-07 -.318E-07 -.680E-04
   0.787E-04 -.462E-05 -.618E+01   0.355E-14 -.389E-12 0.664E+01   0.260E-17 0.521E-17 -.456E+00   0.342E-07 -.323E-07 -.680E-04
   0.136E-03 0.164E-04 -.618E+01   -.191E-13 0.463E-11 0.664E+01   0.217E-17 0.521E-17 -.456E+00   -.350E-07 -.318E-07 -.675E-04
   -.231E-04 -.559E-05 -.152E+01   0.134E-12 -.320E-10 0.284E+01   0.191E-16 -.692E-17 -.132E+01   0.290E-05 0.275E-06 0.312E-02
   -.321E-04 0.814E-05 -.152E+01   -.177E-12 0.402E-10 0.284E+01   0.139E-16 -.346E-17 -.132E+01   -.289E-05 0.275E-06 0.311E-02
   -.228E-04 -.558E-05 -.152E+01   0.853E-13 0.402E-10 0.284E+01   0.191E-16 -.346E-17 -.132E+01   0.290E-05 0.276E-06 0.311E-02
   -.324E-04 0.827E-05 -.152E+01   -.196E-12 0.280E-11 0.284E+01   -.104E-16 0.144E-19 -.132E+01   -.290E-05 0.274E-06 0.312E-02
   -.242E-04 -.558E-05 -.152E+01   0.168E-12 0.277E-11 0.284E+01   0.156E-16 0.348E-17 -.132E+01   0.291E-05 0.276E-06 0.312E-02
   -.328E-04 0.824E-05 -.152E+01   -.256E-12 -.320E-10 0.284E+01   0.208E-16 -.104E-16 -.132E+01   -.290E-05 0.274E-06 0.312E-02
   -.163E+02 0.105E+03 0.221E+01   0.155E+02 -.116E+03 -.316E+01   0.835E+00 0.109E+02 0.964E+00   -.108E-01 0.109E-01 -.103E-01
   -.831E+02 -.668E+02 0.221E+01   0.930E+02 0.716E+02 -.316E+01   -.985E+01 -.472E+01 0.964E+00   -.403E-02 -.148E-01 -.103E-01
   0.994E+02 -.386E+02 0.221E+01   -.108E+03 0.447E+02 -.316E+01   0.901E+01 -.617E+01 0.964E+00   0.148E-01 0.392E-02 -.103E-01
   0.831E+02 -.668E+02 0.221E+01   -.930E+02 0.716E+02 -.316E+01   0.985E+01 -.472E+01 0.964E+00   0.403E-02 -.148E-01 -.103E-01
   0.163E+02 0.105E+03 0.221E+01   -.155E+02 -.116E+03 -.316E+01   -.835E+00 0.109E+02 0.964E+00   0.108E-01 0.109E-01 -.103E-01
   -.994E+02 -.386E+02 0.221E+01   0.108E+03 0.447E+02 -.316E+01   -.901E+01 -.617E+01 0.964E+00   -.148E-01 0.392E-02 -.103E-01
   -.163E+02 0.105E+03 0.221E+01   0.155E+02 -.116E+03 -.316E+01   0.835E+00 0.109E+02 0.964E+00   -.108E-01 0.109E-01 -.103E-01
   -.831E+02 -.668E+02 0.221E+01   0.930E+02 0.716E+02 -.316E+01   -.985E+01 -.472E+01 0.964E+00   -.403E-02 -.148E-01 -.103E-01
   0.994E+02 -.386E+02 0.221E+01   -.108E+03 0.447E+02 -.316E+01   0.901E+01 -.617E+01 0.964E+00   0.148E-01 0.392E-02 -.103E-01
   0.831E+02 -.668E+02 0.221E+01   -.930E+02 0.716E+02 -.316E+01   0.985E+01 -.472E+01 0.964E+00   0.403E-02 -.148E-01 -.103E-01
   0.163E+02 0.105E+03 0.221E+01   -.155E+02 -.116E+03 -.316E+01   -.835E+00 0.109E+02 0.964E+00   0.108E-01 0.109E-01 -.103E-01
   -.994E+02 -.386E+02 0.221E+01   0.108E+03 0.447E+02 -.316E+01   -.901E+01 -.617E+01 0.964E+00   -.148E-01 0.392E-02 -.103E-01
   -.163E+02 0.105E+03 0.221E+01   0.155E+02 -.116E+03 -.316E+01   0.835E+00 0.109E+02 0.964E+00   -.108E-01 0.109E-01 -.103E-01
   -.831E+02 -.668E+02 0.221E+01   0.930E+02 0.716E+02 -.316E+01   -.985E+01 -.472E+01 0.964E+00   -.403E-02 -.148E-01 -.103E-01
   0.994E+02 -.386E+02 0.221E+01   -.108E+03 0.447E+02 -.316E+01   0.901E+01 -.617E+01 0.964E+00   0.148E-01 0.392E-02 -.103E-01
   0.831E+02 -.668E+02 0.221E+01   -.930E+02 0.716E+02 -.316E+01   0.985E+01 -.472E+01 0.964E+00   0.403E-02 -.148E-01 -.103E-01
   0.163E+02 0.105E+03 0.221E+01   -.155E+02 -.116E+03 -.316E+01   -.835E+00 0.109E+02 0.964E+00   0.108E-01 0.109E-01 -.103E-01
   -.994E+02 -.386E+02 0.221E+01   0.108E+03 0.447E+02 -.316E+01   -.901E+01 -.617E+01 0.964E+00   -.148E-01 0.392E-02 -.103E-01
   0.726E-04 0.425E-02 -.647E+01   -.568E-13 -.121E-12 -.419E-12   0.160E-13 -.222E-13 0.667E+01   -.381E-08 0.377E-05 -.167E+00

 POSITION                                       TOTAL-FORCE (eV/Angst)
      2.53092     -1.46123      0.67437         0.000000     -0.000000      0.001864
      0.00000      0.00000      2.96649         0.000000     -0.000000      0.001864
      2.53092      1.46123      5.25861         0.000000     -0.000000      0.001864
      2.53092     -1.46123      7.55073         0.000000     -0.000000      0.001864
      0.00000     -0.00000      9.84284         0.000000     -0.000000      0.001864
      2.53092      1.46123     12.13496         0.000000     -0.000000      0.001864
      2.53092     -1.46123      4.58150         0.000000     -0.000000     -0.002695
      2.53092      1.46123      2.28938         0.000000     -0.000000     -0.002695
      2.53092      1.46123      9.16574         0.000000     -0.000000     -0.002695
      0.00000     -0.00000      6.87362         0.000000     -0.000000     -0.002695
      0.00000      0.00000     -0.00274         0.000000     -0.000000     -0.002695
      2.53092     -1.46123     11.45786         0.000000     -0.000000     -0.002695
      4.09773      1.53767      3.71734         0.002475     -0.000990      0.000277
      1.68132      2.77990      3.71734        -0.000380      0.002638      0.000277
      1.81372      0.06611      3.71734        -0.002094     -0.001648      0.000277
      0.84961      1.31867      1.42523         0.000380      0.002638      0.000277
      3.49504      0.07644      1.42523        -0.002475     -0.000990      0.000277
      3.24813      2.98857      1.42523         0.002094     -0.001648      0.000277
      1.56681      0.07644      8.30158         0.002475     -0.000990      0.000277
      4.21224      1.31867      8.30158        -0.000380      0.002638      0.000277
      1.81372      2.98857      8.30158        -0.002094     -0.001648      0.000277
      3.38053     -0.14255      6.00946         0.000380      0.002638      0.000277
      0.96411     -1.38479      6.00946        -0.002475     -0.000990      0.000277
      3.24813     -2.85635      6.00946         0.002094     -0.001648      0.000277
      4.09773     -1.38479     12.88582         0.002475     -0.000990      0.000277
      1.68132     -0.14255     12.88582        -0.000380      0.002638      0.000277
      1.81372     -2.85635     12.88582        -0.002094     -0.001648      0.000277
      3.38053      2.77990     10.59370         0.000380      0.002638      0.000277
      0.96411      1.53767     10.59370        -0.002475     -0.000990      0.000277
      3.24813      0.06611     10.59370         0.002094     -0.001648      0.000277
    total drift:                                0.000073      0.004250      0.038100

  FREE ENERGIE OF THE ION-ELECTRON SYSTEM (eV)
  free  energy   TOTEN  =      -238.26553911 eV

  energy  without entropy=     -238.27393789  energy(sigma->0) =     -238.26763880

 d Force = 0.1281566E-03[ 0.335E-04, 0.223E-03]  d Energy = 0.1175631E-03 0.106E-04
 d Force = 0.1392281E+01[ 0.139E+01, 0.139E+01]  d Ewald  = 0.8052830E+00 0.587E+00

 Conjugate gradient step on ions:
 trial-energy change:   -0.000118  1 .order   -0.000134   -0.000246   -0.000023
  (g-gl).g = 0.357E-03      g.g   = 0.391E-03  gl.gl    = 0.404E-03
 g(Force)  = 0.169E-03   g(Stress)= 0.222E-03 ortho     =-0.295E-04
 gamma     =   0.88422
 trial     =   0.67257
 opt step  =   0.74188  (harmonic =   0.74188) maximal distance =0.00083759
 next E    =  -238.265557   (d E  =  -0.00014)

 reached required accuracy - stopping structural energy minimisation