 vasp.5.3.3 18Dez12 (build Sep  7 2015 22:32:56) complex

 executed on             LinuxIFC date 2002.02.26  03:02:04

 INCAR:
 POTCAR:    PAW_PBE Fe 06Sep2000
 POTCAR:    PAW_PBE Fe 06Sep2000
   VRHFIN =Fe:  d7 s1

   TITEL  = PAW_PBE Fe 06Sep2000
   POMASS =   55.847; ZVAL   =    8.000    mass and valenz
   ENMAX  =  267.882; ENMIN  =  200.911 eV

  PAW_PBE Fe 06Sep2000                  :

 POSCAR: header
  positions in direct lattice
  velocities in direct lattice
 exchange correlation table for  LEXCH =        8
   RHO(1)=    0.500       N(1)  =     2000
   RHO(2)=  100.500       N(2)  =     4000

 ion  position               nearest neighbor table
   1  0.000  0.000  0.000-   2 2.46   2 2.46   2 2.46   2 2.46   2 2.46   2 2.46   2 2.46   2 2.46

   2  0.500  0.500  0.500-   1 2.46   1 2.46   1 2.46   1 2.46   1 2.46   1 2.46   1 2.46   1 2.46

  LATTYP: Found a simple cubic cell.
 ALAT       =     2.8400000000

  Lattice vectors:

 A1 = (   2.8400000000,   0.0000000000,   0.0000000000)
 A2 = (   0.0000000000,   2.8400000000,   0.0000000000)
 A3 = (   0.0000000000,   0.0000000000,   2.8400000000)

Analysis of symmetry for initial positions (statically):
 Subroutine PRICEL returns following result:

  LATTYP: Found a body centered cubic cell.
 ALAT       =     2.8400000000

[...]

   2 primitive cells build up your supercell.

 Routine SETGRP: Setting up the symmetry group for a
 simple cubic supercell.

 Subroutine GETGRP returns: Found 48 space group operations
 (whereof 48 operations were pure point group operations)
 out of a pool of 48 trial point group operations.

The static configuration has the point symmetry O_h .

Analysis of symmetry for dynamics (positions and initial velocities):
 Subroutine PRICEL returns following result:

  LATTYP: Found a body centered cubic cell.
 ALAT       =     2.8400000000

  Lattice vectors:

 A1 = (   1.4200000000,   1.4200000000,   1.4200000000)
 A2 = (   1.4200000000,  -1.4200000000,  -1.4200000000)
 A3 = (  -1.4200000000,   1.4200000000,  -1.4200000000)

   2 primitive cells build up your supercell.

 Routine SETGRP: Setting up the symmetry group for a
 simple cubic supercell.

 Subroutine GETGRP returns: Found 48 space group operations
 (whereof 48 operations were pure point group operations)
 out of a pool of 48 trial point group operations.

The dynamic configuration has the point symmetry O_h .

Analysis of magnetic symmetry:

 Subroutine MAGSYM returns: Found 48 space group operations
 (whereof 48 operations were pure point group operations)
 out of a pool of 48 trial space group operations
 (whereof 48 operations were pure point group operations)
 and found also     2 'primitive' translations

The magnetic configuration has the point symmetry O_h .

 irot  :   1
 isymop:   1   0   0
           0   1   0
           0   0   1

 gtrans:     0.0000000     0.0000000     0.0000000

 ptrans:     0.0000000     0.0000000     0.0000000
 rotmap:
 (   1->   1)  (   2->   2)

[...]

 irot  :  48
 isymop:   0   0   1
           0   1   0
           1   0   0

 gtrans:     0.0000000     0.0000000     0.0000000

[...]

 ptrans:     0.5000000     0.5000000     0.5000000
 rotmap:
 (   1->   2)  (   2->   1)

 KPOINTS: K-Points

Automatic generation of k-mesh.
Space group operators:
 irot       det(A)        alpha          n_x          n_y          n_z        tau_x        tau_y        tau_z
    1     1.000000     0.000000     1.000000     0.000000     0.000000     0.000000     0.000000     0.000000
    2    -1.000000     0.000000     1.000000     0.000000     0.000000     0.000000     0.000000     0.000000
    3     1.000000   120.000000    -0.577350    -0.577350    -0.577350     0.000000     0.000000     0.000000
    4    -1.000000   120.000000    -0.577350    -0.577350    -0.577350     0.000000     0.000000     0.000000
    5     1.000000   120.000000     0.577350     0.577350     0.577350     0.000000     0.000000     0.000000
    6    -1.000000   120.000000     0.577350     0.577350     0.577350     0.000000     0.000000     0.000000
    7     1.000000    90.000000     0.000000     0.000000    -1.000000     0.000000     0.000000     0.000000
    8    -1.000000    90.000000     0.000000     0.000000    -1.000000     0.000000     0.000000     0.000000
    9     1.000000   180.000000     0.000000     0.707107     0.707107     0.000000     0.000000     0.000000
   10    -1.000000   180.000000     0.000000     0.707107     0.707107     0.000000     0.000000     0.000000
   11     1.000000    90.000000     0.000000     1.000000     0.000000     0.000000     0.000000     0.000000
   12    -1.000000    90.000000     0.000000     1.000000     0.000000     0.000000     0.000000     0.000000
   13     1.000000   180.000000     0.000000     0.000000     1.000000     0.000000     0.000000     0.000000
   14    -1.000000   180.000000     0.000000     0.000000     1.000000     0.000000     0.000000     0.000000
   15     1.000000   120.000000    -0.577350     0.577350     0.577350     0.000000     0.000000     0.000000
   16    -1.000000   120.000000    -0.577350     0.577350     0.577350     0.000000     0.000000     0.000000
   17     1.000000   120.000000    -0.577350     0.577350    -0.577350     0.000000     0.000000     0.000000
   18    -1.000000   120.000000    -0.577350     0.577350    -0.577350     0.000000     0.000000     0.000000
   19     1.000000    90.000000     0.000000     0.000000     1.000000     0.000000     0.000000     0.000000
   20    -1.000000    90.000000     0.000000     0.000000     1.000000     0.000000     0.000000     0.000000
   21     1.000000    90.000000    -1.000000     0.000000     0.000000     0.000000     0.000000     0.000000
   22    -1.000000    90.000000    -1.000000     0.000000     0.000000     0.000000     0.000000     0.000000
   23     1.000000   180.000000     0.707107     0.000000     0.707107     0.000000     0.000000     0.000000
   24    -1.000000   180.000000     0.707107     0.000000     0.707107     0.000000     0.000000     0.000000
   25     1.000000   120.000000     0.577350    -0.577350     0.577350     0.000000     0.000000     0.000000
   26    -1.000000   120.000000     0.577350    -0.577350     0.577350     0.000000     0.000000     0.000000
   27     1.000000   120.000000    -0.577350    -0.577350     0.577350     0.000000     0.000000     0.000000
   28    -1.000000   120.000000    -0.577350    -0.577350     0.577350     0.000000     0.000000     0.000000
   29     1.000000   180.000000     1.000000     0.000000     0.000000     0.000000     0.000000     0.000000
   30    -1.000000   180.000000     1.000000     0.000000     0.000000     0.000000     0.000000     0.000000
   31     1.000000    90.000000     0.000000    -1.000000     0.000000     0.000000     0.000000     0.000000
   32    -1.000000    90.000000     0.000000    -1.000000     0.000000     0.000000     0.000000     0.000000
   33     1.000000   180.000000     0.707107     0.707107     0.000000     0.000000     0.000000     0.000000
   34    -1.000000   180.000000     0.707107     0.707107     0.000000     0.000000     0.000000     0.000000
   35     1.000000    90.000000     1.000000     0.000000     0.000000     0.000000     0.000000     0.000000
   36    -1.000000    90.000000     1.000000     0.000000     0.000000     0.000000     0.000000     0.000000
   37     1.000000   120.000000     0.577350    -0.577350    -0.577350     0.000000     0.000000     0.000000
   38    -1.000000   120.000000     0.577350    -0.577350    -0.577350     0.000000     0.000000     0.000000
   39     1.000000   180.000000     0.000000     1.000000     0.000000     0.000000     0.000000     0.000000
   40    -1.000000   180.000000     0.000000     1.000000     0.000000     0.000000     0.000000     0.000000
   41     1.000000   120.000000     0.577350     0.577350    -0.577350     0.000000     0.000000     0.000000
   42    -1.000000   120.000000     0.577350     0.577350    -0.577350     0.000000     0.000000     0.000000
   43     1.000000   180.000000     0.000000    -0.707107     0.707107     0.000000     0.000000     0.000000
   44    -1.000000   180.000000     0.000000    -0.707107     0.707107     0.000000     0.000000     0.000000
   45     1.000000   180.000000     0.707107    -0.707107     0.000000     0.000000     0.000000     0.000000
   46    -1.000000   180.000000     0.707107    -0.707107     0.000000     0.000000     0.000000     0.000000
   47     1.000000   180.000000     0.707107     0.000000    -0.707107     0.000000     0.000000     0.000000
   48    -1.000000   180.000000     0.707107     0.000000    -0.707107     0.000000     0.000000     0.000000

 Subroutine IBZKPT returns following result:

 Found     10 irreducible k-points:

 Following reciprocal coordinates:
            Coordinates               Weight
  0.000000  0.000000  0.000000      1.000000
  0.200000  0.000000  0.000000      6.000000
  0.400000  0.000000  0.000000      6.000000
  0.200000  0.200000  0.000000     12.000000
  0.400000  0.200000  0.000000     24.000000
  0.400000  0.400000  0.000000     12.000000
  0.200000  0.200000  0.200000      8.000000
  0.400000  0.200000  0.200000     24.000000
  0.400000  0.400000  0.200000     24.000000
  0.400000  0.400000  0.400000      8.000000

 Following cartesian coordinates:
            Coordinates               Weight
  0.000000  0.000000  0.000000      1.000000
  0.200000  0.000000  0.000000      6.000000
  0.400000  0.000000  0.000000      6.000000
  0.200000  0.200000  0.000000     12.000000
  0.400000  0.200000  0.000000     24.000000
  0.400000  0.400000  0.000000     12.000000
  0.200000  0.200000  0.200000      8.000000
  0.400000  0.200000  0.200000     24.000000
  0.400000  0.400000  0.200000     24.000000
  0.400000  0.400000  0.400000      8.000000

 I would recommend the setting:
   dimension x,y,z NGX =    13 NGY =   13 NGZ =   13
 SYSTEM =  Crystal
 POSCAR =  header

 Startparameter for this run:
   NWRITE =      2    write-flag & timer
   PREC   = normal    normal or accurate (medium, high low for compatibility)
   ISTART =      0    job   : 0-new  1-cont  2-samecut
   ICHARG =      2    charge: 1-file 2-atom 10-const
   ISPIN  =      2    spin polarized calculation?
   LNONCOLLINEAR =      F non collinear calculations
   LSORBIT =      F    spin-orbit coupling
   INIWAV =      1    electr: 0-lowe 1-rand  2-diag
   LASPH  =      F    aspherical Exc in radial PAW
   METAGGA=      F    non-selfconsistent MetaGGA calc.

 Electronic Relaxation 1
   ENCUT  =  350.0 eV  25.72 Ry    5.07 a.u.   4.33  4.33  4.33*2*pi/ulx,y,z
   ENINI  =  350.0     initial cutoff
   ENAUG  =  511.4 eV  augmentation charge cutoff
   NELM   =     60;   NELMIN=  4; NELMDL=-10     # of ELM steps
   EDIFF  = 0.1E-03   stopping-criterion for ELM
   LREAL  =      F    real-space projection
   NLSPLINE    = F    spline interpolate recip. space projectors
   LCOMPAT=      F    compatible to vasp.4.4
   GGA_COMPAT  = T    GGA compatible to vasp.4.4-vasp.4.6
   LMAXPAW     = -100 max onsite density
   LMAXMIX     =    2 max onsite mixed and CHGCAR
   VOSKOWN=      0    Vosko Wilk Nusair interpolation
   ROPT   =    0.00000
 Ionic relaxation
[...]
   AEXX    =    0.0000 exact exchange contribution

 Linear response parameters
   LEPSILON=     F    determine dielectric tensor
   LRPA    =     F    only Hartree local field effects (RPA)
   LNABLA  =     F    use nabla operator in PAW spheres
   LVEL    =     F    velocity operator in full k-point grid
   LINTERFAST=   F  fast interpolation
   KINTER  =     0    interpolate to denser k-point grid
   CSHIFT  =0.1000    complex shift for real part using Kramers Kronig
   OMEGAMAX=  -1.0    maximum frequency
   DEG_THRESHOLD= 0.2000000E-02 threshold for treating states as degnerate
   RTIME   =    0.100 relaxation time in fs

 Orbital magnetization related:
   ORBITALMAG=     F  switch on orbital magnetization
   LCHIMAG   =     F  perturbation theory with respect to B field
   DQ        =  0.001000  dq finite difference perturbation B field

 conjugate gradient relaxation of ions
 charge density and potential will be updated during run
 spin polarized calculation
 RMM-DIIS sequential band-by-band and
  variant of blocked Davidson during initial phase
 perform sub-space diagonalisation
    before iterative eigenvector-optimisation
 modified Broyden-mixing scheme, WC =      100.0
 initial mixing is a Kerker type mixing with AMIX =  0.4000 and BMIX =      1.0000
 Hartree-type preconditioning will be used
 using additional bands            5
 reciprocal scheme for non local part
 use partial core corrections
 calculate Harris-corrections to forces
   (improved forces if not selfconsistent)
 use gradient corrections
 use of overlap-Matrix (Vanderbilt PP)
 Methfessel and Paxton  Order N= 2 SIGMA  =   0.10

  energy-cutoff  :      350.00
  volume of cell :       22.91
      direct lattice vectors                 reciprocal lattice vectors
     2.840000000  0.000000000  0.000000000     0.352112676  0.000000000  0.000000000
     0.000000000  2.840000000  0.000000000     0.000000000  0.352112676  0.000000000
     0.000000000  0.000000000  2.840000000     0.000000000  0.000000000  0.352112676

  length of vectors
     2.840000000  2.840000000  2.840000000     0.352112676  0.352112676  0.352112676

 k-points in units of 2pi/SCALE and weight: K-Points
   0.00000000  0.00000000  0.00000000       0.008
   0.20000000  0.00000000  0.00000000       0.048
   0.40000000  0.00000000  0.00000000       0.048
   0.20000000  0.20000000  0.00000000       0.096
   0.40000000  0.20000000  0.00000000       0.192
   0.40000000  0.40000000  0.00000000       0.096
   0.20000000  0.20000000  0.20000000       0.064
   0.40000000  0.20000000  0.20000000       0.192
   0.40000000  0.40000000  0.20000000       0.192
   0.40000000  0.40000000  0.40000000       0.064

 k-points in reciprocal lattice and weights: K-Points
   0.00000000  0.00000000  0.00000000       0.008
   0.20000000  0.00000000  0.00000000       0.048
   0.40000000  0.00000000  0.00000000       0.048
   0.20000000  0.20000000  0.00000000       0.096
   0.40000000  0.20000000  0.00000000       0.192
   0.40000000  0.40000000  0.00000000       0.096
   0.20000000  0.20000000  0.20000000       0.064
   0.40000000  0.20000000  0.20000000       0.192
   0.40000000  0.40000000  0.20000000       0.192
   0.40000000  0.40000000  0.40000000       0.064

 position of ions in fractional coordinates (direct lattice)
   0.00000000  0.00000000  0.00000000
   0.50000000  0.50000000  0.50000000

 position of ions in cartesian coordinates  (Angst):
   0.00000000  0.00000000  0.00000000
   1.42000000  1.42000000  1.42000000

 k-point  1 :   0.0000 0.0000 0.0000  plane waves:     341
 k-point  2 :   0.2000 0.0000 0.0000  plane waves:     349
 k-point  3 :   0.4000 0.0000 0.0000  plane waves:     344
 k-point  4 :   0.2000 0.2000 0.0000  plane waves:     340
 k-point  5 :   0.4000 0.2000 0.0000  plane waves:     338
 k-point  6 :   0.4000 0.4000 0.0000  plane waves:     346
 k-point  7 :   0.2000 0.2000 0.2000  plane waves:     341
 k-point  8 :   0.4000 0.2000 0.2000  plane waves:     345
 k-point  9 :   0.4000 0.4000 0.2000  plane waves:     341
 k-point 10 :   0.4000 0.4000 0.4000  plane waves:     332

 maximum and minimum number of plane-waves per node :       349      332

 maximum number of plane-waves:       349
 maximum index in each direction:
   IXMAX=    4   IYMAX=    4   IZMAX=    4
   IXMIN=   -4   IYMIN=   -4   IZMIN=   -4

 WARNING: aliasing errors must be expected set NGX to  18 to avoid them
 WARNING: aliasing errors must be expected set NGY to  18 to avoid them
 WARNING: aliasing errors must be expected set NGZ to  18 to avoid them
 aliasing errors are usually negligible using standard VASP settings
 and one can safely disregard these warnings

 serial   3D FFT for wavefunctions
 parallel 3D FFT for charge:
    minimum data exchange during FFTs selected (reduces bandwidth)

 Broyden mixing: mesh for mixing (old mesh)
   NGX =  9   NGY =  9   NGZ =  9
  (NGX  = 28   NGY  = 28   NGZ  = 28)
  gives a total of    729 points

 initial charge density was supplied:
 charge density of overlapping atoms calculated
 number of electron      16.0000000 magnetization       2.0000000
 keeping initial charge density in first step

 Maximum index for augmentation-charges         4139 (set IRDMAX)

 First call to EWALD:  gamma=   0.624
 Maximum number of real-space cells 3x 3x 3
 Maximum number of reciprocal cells 3x 3x 3

 FEWALD executed in parallel

----------------------------------------- Iteration    1(   1)  ---------------------------------------

 eigenvalue-minimisations  :   520
 total energy-change (2. order) : 0.7267493E+02  (-0.5845770E+03)
 number of electron      16.0000000 magnetization       2.0000000
 augmentation part       16.0000000 magnetization       2.0000000

 Free energy of the ion-electron system (eV)
  alpha Z        PSCENC =       120.68952896
  Ewald energy   TEWEN  =     -1180.93943474
  -1/2 Hartree   DENC   =      -224.31721862
  -exchange  EXHF       =         0.00000000
  -V(xc)+E(xc)   XCENC  =         8.02991585
  PAW double counting   =      1109.45345578    -1124.86183816
  entropy T*S    EENTRO =         0.00033413
  eigenvalues    EBANDS =       176.03052628
  atomic energy  EATOM  =      1188.58965621
  free energy    TOTEN  =        72.67492570 eV

  energy without entropy =       72.67459157  energy(sigma->0) =       72.67484216

[...]

 eigenvalue-minimisations  :   520
 total energy-change (2. order) :-0.8887994E+02  (-0.8086574E+02)
 number of electron      16.0000000 magnetization       2.0000000
 augmentation part       16.0000000 magnetization       2.0000000

[...]

 Broyden mixing:
  rms(total) = 0.16084E+01    rms(broyden)= 0.16077E+01
  rms(prec ) = 0.37481E+01
  weight for this iteration     100.00

[...]

 eigenvalues of (default mixing * dielectric matrix)
  average eigenvalue GAMMA=   0.5020
  0.5020

[...]

 average (electrostatic) potential at core
  the test charge radii are     1.0103
  (the norm of the test charge is              1.0000)
       1 -43.4874       2 -43.4874

 E-fermi :   5.6265     XC(G=0): -13.0829     alpha+bet :-13.5338

 spin component 1

 k-point   1 :       0.0000    0.0000    0.0000
  band No.  band energies     occupation
      1      -2.6391      1.00000
      2       0.9191      1.00000
      3       0.9191      1.00000
      4       3.4078      1.00000
      5       3.4078      1.00000
      6       3.4078      1.00000
      7       4.6140      1.00000
      8       4.6140      1.00000
      9       5.7833     -0.00645
     10       5.7833     -0.00645
     11       5.7833     -0.00645
     12      15.6228      0.00000
     13      15.6228      0.00000

[...]

 soft charge-density along one line, spin component           1
         0         1         2         3         4         5         6         7         8         9
 total charge-density along one line

[...]

------------------------ aborting loop because EDIFF is reached ----------------------------------------

  FORCE on cell =-STRESS in cart. coord.  units (eV):
  Direction    XX          YY          ZZ          XY          YZ          ZX
  Alpha Z   120.68953   120.68953   120.68953
  Ewald    -393.64645  -393.64645  -393.64645     0.00000    -0.00000     0.00000
  Hartree    63.46711    63.46711    63.46711    -0.00000    -0.00000    -0.00000
  E(xc)     -79.22155   -79.22155   -79.22155     0.00000     0.00000    -0.00000
  Local     117.22304   117.22304   117.22304    -0.00000     0.00000    -0.00000
  n-local   -54.15366   -51.58744   -48.65804     2.65929    -0.64387     0.35859
  augment    77.53770    77.53770    77.53770     0.00000    -0.00000     0.00000
  Kinetic   147.82111   144.90334   142.00111     3.00462    -0.35116    -0.15595
  Fock        0.00000     0.00000     0.00000     0.00000     0.00000     0.00000
  Total      -0.50848    -0.50848    -0.50848    -0.00000     0.00000    -0.00000
  in kB     -35.56570   -35.56570   -35.56570    -0.00000     0.00000    -0.00000

 VOLUME and BASIS-vectors are now :
  energy-cutoff  :      350.00
  volume of cell :       22.91
      direct lattice vectors                 reciprocal lattice vectors
     2.840000000  0.000000000  0.000000000     0.352112676  0.000000000  0.000000000
     0.000000000  2.840000000  0.000000000     0.000000000  0.352112676  0.000000000
     0.000000000  0.000000000  2.840000000     0.000000000  0.000000000  0.352112676

[...]

 FORCES acting on ions
    electron-ion (+dipol)            ewald-force                    non-local-force                 convergence-correction
   -.852E-14 -.978E-14 -.251E-13   -.101E-13 -.418E-14 -.330E-14   0.000E+00 0.827E-24 0.103E-24   -.196E-13 0.680E-15 -.134E-13
   0.187E-12 -.513E-12 0.673E-13   0.109E-13 0.350E-14 0.342E-14   0.000E+00 0.827E-24 0.000E+00   0.116E-13 0.511E-14 -.189E-13
   0.178E-12 -.522E-12 0.421E-13   0.806E-15 -.679E-15 0.120E-15   0.000E+00 0.165E-23 0.103E-24   -.797E-14 0.579E-14 -.323E-13

 POSITION                                       TOTAL-FORCE (eV/Angst)
      0.00000      0.00000      0.00000        -0.000000     -0.000000     -0.000000
      1.42000      1.42000      1.42000         0.000000      0.000000      0.000000
    total drift:                                0.000000     -0.000000      0.000000

  FREE ENERGIE OF THE ION-ELECTRON SYSTEM (eV)
  free  energy   TOTEN  =       -16.50486091 eV

  energy  without entropy=      -16.50402063  energy(sigma->0) =      -16.50465084

[...]

 d Force = 0.0000000E+00[ 0.000E+00, 0.000E+00]  d Energy = 0.2439730E-02-0.244E-02
 d Force = 0.0000000E+00[ 0.000E+00, 0.000E+00]  d Ewald  = 0.1466440E+02-0.147E+02

 Steepest descent step on ions:
 trial-energy change:   -0.002440  1 .order   -0.000927   -0.018710    0.016856
  (g-gl).g = 0.187E-01      g.g   = 0.187E-01  gl.gl    = 0.000E+00
 g(Force)  = 0.836E-63   g(Stress)= 0.187E-01 ortho     = 0.000E+00
 gamma     =   0.00000
 trial     =   1.00000
 opt step  =   0.58789  (harmonic =   0.52607) maximal distance =0.00000000
 next E    =   -16.510668   (d E  =  -0.00581)

[...]

 d Force = 0.0000000E+00[ 0.000E+00, 0.000E+00]  d Energy = 0.3732091E-02-0.373E-02
 d Force = 0.0000000E+00[ 0.000E+00, 0.000E+00]  d Ewald  =-0.6087215E+01 0.609E+01

[...]

 d Force = 0.0000000E+00[ 0.000E+00, 0.000E+00]  d Energy =-0.2225019E-03 0.223E-03
 d Force = 0.0000000E+00[ 0.000E+00, 0.000E+00]  d Ewald  =-0.1563139E+01 0.156E+01

 FEWALD executed in parallel

[...]

 eigenvalue-minimisations  :   520
 total energy-change (2. order) :-0.1000909E-02  (-0.1738485E-02)
 number of electron      16.0000117 magnetization       4.1897420
 augmentation part        8.2601476 magnetization       3.4594735

[...]

 Broyden mixing:
  rms(total) = 0.87798E-02    rms(broyden)= 0.87798E-02
  rms(prec ) = 0.94053E-02
  weight for this iteration     100.00

 eigenvalues of (default mixing * dielectric matrix)
  average eigenvalue GAMMA=   0.7909
  1.0016  0.5801

[...]

----------------------------------------- Iteration    5(   4)  ---------------------------------------

 eigenvalue-minimisations  :   246
 total energy-change (2. order) : 0.9426186E-05  (-0.1011176E-05)
 number of electron      16.0000117 magnetization       4.1864068
 augmentation part        8.2773684 magnetization       3.4591802

 Free energy of the ion-electron system (eV)
  alpha Z        PSCENC =       123.16568603
  Ewald energy   TEWEN  =     -1188.96116931
  -1/2 Hartree   DENC   =      -187.30583008
  -exchange  EXHF       =         0.00000000
  -V(xc)+E(xc)   XCENC  =         8.46010602
  PAW double counting   =      1443.40868164    -1461.60521377
  entropy T*S    EENTRO =        -0.00071167
  eigenvalues    EBANDS =        57.73778586
  atomic energy  EATOM  =      1188.58965621
  free energy    TOTEN  =       -16.51100906 eV

  energy without entropy =      -16.51029739  energy(sigma->0) =      -16.51083114

 average (electrostatic) potential at core
  the test charge radii are     1.0103
  (the norm of the test charge is              1.0000)
       1 -43.3084       2 -43.3084

 E-fermi :   5.8468     XC(G=0): -13.1995     alpha+bet :-13.8115

[...]

 spin component 2

[...]

 k-point  10 :       0.4000    0.4000    0.4000
  band No.  band energies     occupation
      1       3.5884      1.00000
      2       3.7979      1.00000
      3       3.9269      1.00000
      4       3.9269      1.00000
      5       4.1846      1.00000
      6       4.1846      1.00000
      7       7.6836      0.00000
      8       7.6836      0.00000
      9       7.7104      0.00000
     10       7.7104      0.00000
     11      11.6020      0.00000
     12      14.1137      0.00000
     13      14.1137      0.00000

[...]

 soft charge-density along one line, spin component           2
         0         1         2         3         4         5         6         7         8         9
 total charge-density along one line

------------------------ aborting loop because EDIFF is reached ----------------------------------------

  FORCE on cell =-STRESS in cart. coord.  units (eV):
  Direction    XX          YY          ZZ          XY          YZ          ZX
  Alpha Z   123.16569   123.16569   123.16569
  Ewald    -396.32036  -396.32036  -396.32036    -0.00000    -0.00000    -0.00000
  Hartree    62.42505    62.42505    62.42505    -0.00000    -0.00000    -0.00000
  E(xc)     -79.33169   -79.33169   -79.33169    -0.00000    -0.00000     0.00000
  Local     118.33533   118.33533   118.33533     0.00000     0.00000     0.00000
  n-local   -53.73726   -51.33457   -48.31373     2.63888    -0.67828     0.34358
  augment    77.42319    77.42319    77.42319    -0.00000    -0.00000     0.00000
  Kinetic   148.26870   145.49614   142.58043     3.26222    -0.32690    -0.12909
  Fock        0.00000     0.00000     0.00000     0.00000     0.00000     0.00000
  Total       0.01711     0.01711     0.01711     0.00000     0.00000     0.00000
  in kB       1.22129     1.22129     1.22129     0.00000     0.00000     0.00000

 VOLUME and BASIS-vectors are now :
  energy-cutoff  :      350.00
  volume of cell :       22.45
      direct lattice vectors                 reciprocal lattice vectors
     2.820838965 -0.000000000 -0.000000000     0.354504462  0.000000000  0.000000000
    -0.000000000  2.820838965  0.000000000     0.000000000  0.354504462 -0.000000000
    -0.000000000  0.000000000  2.820838965     0.000000000 -0.000000000  0.354504462

  length of vectors
     2.820838965  2.820838965  2.820838965     0.354504462  0.354504462  0.354504462

 FORCES acting on ions
    electron-ion (+dipol)            ewald-force                    non-local-force                 convergence-correction
   -.143E-13 -.104E-13 -.284E-13   -.725E-15 0.732E-15 -.265E-14   0.748E-28 -.798E-30 0.404E-27   0.271E-14 0.203E-14 -.255E-13
   0.198E-12 -.487E-12 0.875E-13   0.152E-14 -.227E-14 0.427E-14   0.750E-28 -.896E-30 0.404E-27   -.720E-14 -.575E-14 -.267E-13
   0.184E-12 -.498E-12 0.591E-13   0.794E-15 -.154E-14 0.162E-14   0.150E-27 -.169E-29 0.808E-27   -.449E-14 -.372E-14 -.523E-13

 POSITION                                       TOTAL-FORCE (eV/Angst)
     -0.00000     -0.00000     -0.00000         0.000000      0.000000      0.000000
      1.41042      1.41042      1.41042        -0.000000     -0.000000     -0.000000
    total drift:                                0.000000     -0.000000      0.000000

  FREE ENERGIE OF THE ION-ELECTRON SYSTEM (eV)
  free  energy   TOTEN  =       -16.51100906 eV

  energy  without entropy=      -16.51029739  energy(sigma->0) =      -16.51083114

 d Force = 0.0000000E+00[ 0.000E+00, 0.000E+00]  d Energy = 0.1988339E-03-0.199E-03
 d Force = 0.0000000E+00[ 0.000E+00, 0.000E+00]  d Ewald  = 0.1007688E+01-0.101E+01

 reached required accuracy - stopping structural energy minimisation