 vasp.5.3.3 18Dez12 (build Sep  7 2015 22:32:56) complex

 executed on             LinuxIFC date 2022.12.08  17:35:00

 INCAR:
 POTCAR:    PAW_PBE Fe 06Sep2000
 POTCAR:    PAW_PBE Cl 06Sep2000
 POTCAR:    PAW_PBE Fe 06Sep2000
   VRHFIN =Fe:  d7 s1

   TITEL  = PAW_PBE Fe 06Sep2000
   POMASS =   55.847; ZVAL   =    8.000    mass and valenz
   ENMAX  =  267.882; ENMIN  =  200.911 eV

 POTCAR:    PAW_PBE Cl 06Sep2000
   VRHFIN =Cl: s2p5

   TITEL  = PAW_PBE Cl 06Sep2000
   POMASS =   35.453; ZVAL   =    7.000    mass and valenz
   ENMAX  =  262.472; ENMIN  =  196.854 eV

  PAW_PBE Fe 06Sep2000                  :
  PAW_PBE Cl 06Sep2000                  :

 POSCAR: header
  positions in cartesian coordinates
 exchange correlation table for  LEXCH =        8
   RHO(1)=    0.500       N(1)  =     2000
   RHO(2)=  100.500       N(2)  =     4000

 ion  position               nearest neighbor table
   1  0.000  0.000  0.000-   5 2.44   6 2.44   7 2.44   8 2.44   2 2.82   3 2.82   3 2.82   2 2.82
                             9 2.82
   2  0.500  0.000  0.000-   5 2.44   6 2.44   7 2.44   8 2.44   1 2.82   4 2.82   4 2.82   1 2.82
                            10 2.82
   3  0.000  0.500  0.000-   5 2.44   6 2.44   7 2.44   8 2.44   1 2.82   4 2.82   1 2.82   4 2.82
                            11 2.82
   4  0.500  0.500  0.000-   5 2.44   6 2.44   7 2.44   8 2.44   2 2.82   3 2.82   2 2.82   3 2.82
                            12 2.82
   5  0.250  0.250  0.094-   1 2.44   2 2.44   3 2.44   4 2.44   9 2.44  10 2.44  11 2.44  12 2.44
                             6 2.82   7 2.82   7 2.82   6 2.82
   6  0.750  0.250  0.094-   1 2.44   2 2.44   3 2.44   4 2.44   9 2.44  10 2.44  11 2.44  12 2.44
                             5 2.82   8 2.82   8 2.82   5 2.82
   7  0.250  0.750  0.094-   1 2.44   2 2.44   3 2.44   4 2.44   9 2.44  10 2.44  11 2.44  12 2.44
                             5 2.82   8 2.82   5 2.82   8 2.82
   8  0.750  0.750  0.094-   1 2.44   2 2.44   3 2.44   4 2.44   9 2.44  10 2.44  11 2.44  12 2.44
                             6 2.82   7 2.82   6 2.82   7 2.82
   9  0.000  0.000  0.188-   5 2.44   6 2.44   7 2.44   8 2.44  13 2.50  11 2.82  10 2.82  11 2.82
                            10 2.82   1 2.82
  10  0.500  0.000  0.188-   5 2.44   6 2.44   7 2.44   8 2.44   9 2.82  12 2.82  12 2.82   9 2.82
                             2 2.82
  11  0.000  0.500  0.188-   5 2.44   6 2.44   7 2.44   8 2.44  14 2.63  12 2.82   9 2.82   9 2.82
                            12 2.82   3 2.82
  12  0.500  0.500  0.188-   5 2.44   6 2.44   7 2.44   8 2.44  10 2.82  11 2.82  10 2.82  11 2.82
                             4 2.82
  13  0.000  0.000  0.355-  14 1.99   9 2.50
  14  0.000  0.353  0.355-  13 1.99  11 2.63

  LATTYP: Found a simple tetragonal cell.
 ALAT       =     5.6400000000
 C/A-ratio  =     2.6595744681

  Lattice vectors:

 A1 = (   5.6400000000,   0.0000000000,   0.0000000000)
 A2 = (   0.0000000000,   5.6400000000,   0.0000000000)
 A3 = (   0.0000000000,   0.0000000000,  15.0000000000)

Analysis of symmetry for initial positions (statically):
 Subroutine PRICEL returns:
 Original cell was already a primitive cell.

 Routine SETGRP: Setting up the symmetry group for a
 simple tetragonal supercell.

 Subroutine GETGRP returns: Found  2 space group operations
 (whereof  2 operations were pure point group operations)
 out of a pool of 16 trial point group operations.

The static configuration has the point symmetry C_1h.

Analysis of symmetry for dynamics (positions and initial velocities):
 Subroutine PRICEL returns:
 Original cell was already a primitive cell.

[...]

The dynamic configuration has the point symmetry C_1h.

Analysis of constrained symmetry for selective dynamics:
 Subroutine PRICEL returns:
 Original cell was already a primitive cell.

 Routine SETGRP: Setting up the symmetry group for a
 simple tetragonal supercell.

 Subroutine GETGRP returns: Found  2 space group operations
 (whereof  2 operations were pure point group operations)
 out of a pool of 16 trial point group operations.

The constrained configuration has the point symmetry C_1h.

Analysis of magnetic symmetry:

 Subroutine MAGSYM returns: Found  2 space group operations
 (whereof  2 operations were pure point group operations)
 out of a pool of  2 trial space group operations
 (whereof  2 operations were pure point group operations)
 and found also     1 'primitive' translations

The magnetic configuration has the point symmetry C_1h.

 irot  :   1
 isymop:   1   0   0
           0   1   0
           0   0   1

 gtrans:     0.0000000     0.0000000     0.0000000

 ptrans:     0.0000000     0.0000000     0.0000000
 rotmap:
 (   1->   1)  (   2->   2)  (   3->   3)  (   4->   4)  (   5->   5)
 (   6->   6)  (   7->   7)  (   8->   8)  (   9->   9)  (  10->  10)
 (  11->  11)  (  12->  12)  (  13->  13)  (  14->  14)

 irot  :   2
 isymop:  -1   0   0
           0   1   0
           0   0   1

 gtrans:     0.0000000     0.0000000     0.0000000

 ptrans:     0.0000000     0.0000000     0.0000000
 rotmap:
 (   1->   1)  (   2->   2)  (   3->   3)  (   4->   4)  (   5->   6)
 (   6->   5)  (   7->   8)  (   8->   7)  (   9->   9)  (  10->  10)
 (  11->  11)  (  12->  12)  (  13->  13)  (  14->  14)

 KPOINTS: K-Points

Automatic generation of k-mesh.
Space group operators:
 irot       det(A)        alpha          n_x          n_y          n_z        tau_x        tau_y        tau_z
    1     1.000000     0.000000     1.000000     0.000000     0.000000     0.000000     0.000000     0.000000
    2    -1.000000   180.000000     1.000000     0.000000     0.000000     0.000000     0.000000     0.000000

 Subroutine IBZKPT returns following result:

 Found      4 irreducible k-points:

 Following reciprocal coordinates:
            Coordinates               Weight
  0.000000  0.000000  0.000000      1.000000
  0.500000  0.000000  0.000000      1.000000
  0.000000  0.500000  0.000000      1.000000
  0.500000  0.500000  0.000000      1.000000

 Following cartesian coordinates:
            Coordinates               Weight
  0.000000  0.000000  0.000000      1.000000
  0.088652  0.000000  0.000000      1.000000
  0.000000  0.088652  0.000000      1.000000
  0.088652  0.088652  0.000000      1.000000

 I would recommend the setting:
   dimension x,y,z NGX =    26 NGY =   26 NGZ =   69
 SYSTEM =  Crystal
 POSCAR =  header

 Startparameter for this run:
   NWRITE =      2    write-flag & timer
   PREC   = normal    normal or accurate (medium, high low for compatibility)
   ISTART =      0    job   : 0-new  1-cont  2-samecut
   ICHARG =      2    charge: 1-file 2-atom 10-const
   ISPIN  =      2    spin polarized calculation?
   LNONCOLLINEAR =      F non collinear calculations
   LSORBIT =      F    spin-orbit coupling
   INIWAV =      1    electr: 0-lowe 1-rand  2-diag
   LASPH  =      F    aspherical Exc in radial PAW
   METAGGA=      F    non-selfconsistent MetaGGA calc.

 Electronic Relaxation 1
   ENCUT  =  350.0 eV  25.72 Ry    5.07 a.u.   8.60  8.60 22.88*2*pi/ulx,y,z
   ENINI  =  350.0     initial cutoff
   ENAUG  =  511.4 eV  augmentation charge cutoff
   NELM   =     60;   NELMIN=  4; NELMDL=-10     # of ELM steps
   EDIFF  = 0.1E-03   stopping-criterion for ELM
   LREAL  =      F    real-space projection
   NLSPLINE    = F    spline interpolate recip. space projectors
   LCOMPAT=      F    compatible to vasp.4.4
   GGA_COMPAT  = T    GGA compatible to vasp.4.4-vasp.4.6
   LMAXPAW     = -100 max onsite density
   LMAXMIX     =    2 max onsite mixed and CHGCAR
   VOSKOWN=      0    Vosko Wilk Nusair interpolation
   ROPT   =    0.00000   0.00000
 Ionic relaxation
   EDIFFG = -.1E-01   stopping-criterion for IOM
   NSW    =    300    number of steps for IOM
   NBLOCK =      1;   KBLOCK =    300    inner block; outer block
   IBRION =      2    ionic relax: 0-MD 1-quasi-New 2-CG
   NFREE  =      1    steps in history (QN), initial steepest desc. (CG)
   ISIF   =      2    stress and relaxation
   IWAVPR =     11    prediction:  0-non 1-charg 2-wave 3-comb
   ISYM   =      2    0-nonsym 1-usesym 2-fastsym
   LCORR  =      T    Harris-Foulkes like correction to forces

   POTIM  = 0.5000    time-step for ionic-motion
   TEIN   =    0.0    initial temperature
   TEBEG  =    0.0;   TEEND  =   0.0 temperature during run
   SMASS  =  -3.00    Nose mass-parameter (am)
   estimated Nose-frequenzy (Omega)   =  0.10E-29 period in steps =****** mass=  -0.727E-27a.u.
   SCALEE = 1.0000    scale energy and forces
   NPACO  =    256;   APACO  = 16.0  distance and # of slots for P.C.
   PSTRESS=    0.0 pullay stress

  Mass of Ions in am
   POMASS =  55.85 35.45
  Ionic Valenz
   ZVAL   =   8.00  7.00
  Atomic Wigner-Seitz radii
  virtual crystal weights
   VCA    =   1.00  1.00
   NELECT =     110.0000    total number of electrons
   NUPDOWN=      -1.0000    fix difference up-down

 DOS related values:
   EMIN   =  10.00;   EMAX   =-10.00  energy-range for DOS
   EFERMI =   0.00
   ISMEAR =     2;   SIGMA  =   0.10  broadening in eV -4-tet -1-fermi 0-gaus

 Electronic relaxation 2 (details)
   IALGO  =     68    algorithm
   LDIAG  =      T    sub-space diagonalisation (order eigenvalues)
   LSUBROT=      T    optimize rotation matrix (better conditioning)
   TURBO    =      0    0=normal 1=particle mesh
   IRESTART =      0    0=no restart 2=restart with 2 vectors
   NREBOOT  =      0    no. of reboots
   NMIN     =      0    reboot dimension
   EREF     =   0.00    reference energy to select bands
   IMIX   =      4    mixing-type and parameters
     AMIX     =   0.40;   BMIX     =  1.00
     AMIX_MAG =   1.60;   BMIX_MAG =  1.00
     AMIN     =   0.10
     WC   =   100.;   INIMIX=   1;  MIXPRE=   1;  MAXMIX= -45

 Intra band minimization:
   WEIMIN = 0.0010     energy-eigenvalue tresh-hold
   EBREAK =  0.34E-06  absolut break condition
   DEPER  =   0.30     relativ break condition

   TIME   =   0.40     timestep for ELM

  volume/ion in A,a.u.               =      34.08       229.99
  Fermi-wavevector in a.u.,A,eV,Ry     =   1.003820  1.896945 13.709977  1.007655
  Thomas-Fermi vector in A             =   2.136396

 Write flags
   LWAVE  =      F    write WAVECAR
   LCHARG =      F    write CHGCAR
   LVTOT  =      F    write LOCPOT, total local potential
   LVHAR  =      F    write LOCPOT, Hartree potential only
   LELF   =      F    write electronic localiz. function (ELF)
   LORBIT =      0    0 simple, 1 ext, 2 COOP (PROOUT)

 Dipole corrections
   LMONO  =      F    monopole corrections only (constant potential shift)
   LDIPOL =      F    correct potential (dipole corrections)
   IDIPOL =      0    1-x, 2-y, 3-z, 4-all directions
   EPSILON=  1.0000000 bulk dielectric constant

 Exchange correlation treatment:
   GGA     =    --    GGA type
   VOSKOWN=      0    Vosko Wilk Nusair interpolation
   LHFCALC =     F    Hartree Fock is set to
   LHFONE  =     F    Hartree Fock one center treatment
   AEXX    =    0.0000 exact exchange contribution

 Linear response parameters
   LEPSILON=     F    determine dielectric tensor
   LRPA    =     F    only Hartree local field effects (RPA)
[...]
      4.23000      4.23000      1.41000         0.004235     -0.005478     -0.179453
      0.00000      0.00000      2.82000         0.000000     -0.289629      0.635581
      2.82000      0.00000      2.82000         0.000000      0.048071     -0.162426
      0.00000      2.82000      2.82000         0.000000     -0.091803      0.879472
      2.82000      2.82000      2.82000         0.000000     -0.051570     -0.146785
      0.00000      0.00000      5.32000         0.000000     -5.430453     -0.449770
      0.00000      1.99000      5.32000         0.000000      5.785771     -0.246660
    total drift:                                0.000000     -0.001974      0.006571

  FREE ENERGIE OF THE ION-ELECTRON SYSTEM (eV)
  free  energy   TOTEN  =       -93.43114490 eV

  energy  without entropy=      -93.42055777  energy(sigma->0) =      -93.42849812

[...]

 eigenvalue-minimisations  :   648
 total energy-change (2. order) :-0.9525457E-04  ( 0.1205937E-04)
 number of electron     110.0000244 magnetization      32.0024985
 augmentation part       48.4499360 magnetization      25.1199468

[...]

 d Force = 0.1973330E+01[ 0.833E+00, 0.311E+01]  d Energy = 0.1710540E+01 0.263E+00
 d Force = 0.5381939E+02[ 0.288E+02, 0.788E+02]  d Ewald  = 0.5200289E+02 0.182E+01

 Steepest descent step on ions:
 trial-energy change:   -1.710540  1 .order   -1.973330   -3.114099   -0.832561
  (g-gl).g = 0.311E+01      g.g   = 0.311E+01  gl.gl    = 0.000E+00
 g(Force)  = 0.311E+01   g(Stress)= 0.000E+00 ortho     = 0.000E+00
 gamma     =   0.00000
 trial     =   1.00000
 opt step  =   1.36491  (harmonic =   1.36491) maximal distance =0.38097559
 next E    =   -95.556381   (d E  =  -2.12524)

[...]

 d Force =-0.1289492E+00[-0.530E+00, 0.272E+00]  d Energy =-0.1183833E+00-0.106E-01
 d Force = 0.2848577E-01[-0.104E+02, 0.104E+02]  d Ewald  = 0.1166345E+00-0.881E-01

[...]

 d Force = 0.1675998E+00[-0.150E-01, 0.350E+00]  d Energy = 0.1669509E+00 0.649E-03
 d Force = 0.2285777E+01[-0.229E+01, 0.686E+01]  d Ewald  = 0.2240673E+01 0.451E-01

[...]

 d Force = 0.2510766E+00[ 0.186E+00, 0.316E+00]  d Energy = 0.2615828E+00-0.105E-01
 d Force =-0.1135952E+02[-0.137E+02,-0.905E+01]  d Ewald  =-0.1129908E+02-0.604E-01

 Conjugate gradient step on ions:
 trial-energy change:   -0.261583  1 .order   -0.251077   -0.315859   -0.186294
  (g-gl).g = 0.248E+00      g.g   = 0.279E+00  gl.gl    = 0.311E+01
 g(Force)  = 0.279E+00   g(Stress)= 0.000E+00 ortho     = 0.312E-01
 gamma     =   0.07956
 trial     =   1.12250
 opt step  =   1.98922  (harmonic =   2.73649) maximal distance =0.12952722
 next E    =   -95.818998   (d E  =  -0.33834)

[...]

 d Force = 0.7107071E-01[-0.170E-02, 0.144E+00]  d Energy = 0.7425839E-01-0.319E-02
 d Force =-0.1213846E+02[-0.137E+02,-0.106E+02]  d Ewald  =-0.1210556E+02-0.329E-01

[...]

 Conjugate gradient step on ions:
 trial-energy change:   -0.025564  1 .order   -0.025605   -0.038509   -0.012702
  (g-gl).g = 0.979E-02      g.g   = 0.298E-01  gl.gl    = 0.279E+00
 g(Force)  = 0.298E-01   g(Stress)= 0.000E+00 ortho     =-0.196E-02
 gamma     =   0.03509
 trial     =   1.29584
 opt step  =   1.93365  (harmonic =   1.93365) maximal distance =0.05666257
 next E    =   -95.845229   (d E  =  -0.02873)

[...]

 d Force = 0.1656081E-02[-0.686E-03, 0.400E-02]  d Energy = 0.1202617E-02 0.453E-03
 d Force = 0.2595511E+00[ 0.222E+00, 0.297E+00]  d Ewald  = 0.2596458E+00-0.947E-04

[...]

 d Force = 0.9357807E-04[ 0.867E-04, 0.100E-03]  d Energy =-0.1618949E-03 0.255E-03
 d Force =-0.3338473E-01[-0.342E-01,-0.326E-01]  d Ewald  =-0.3338503E-01 0.308E-06

[...]

 d Force =-0.1536896E-03[-0.560E-03, 0.253E-03]  d Energy =-0.1036041E-03-0.501E-04
 d Force =-0.1063771E+00[-0.113E+00,-0.996E-01]  d Ewald  =-0.1063847E+00 0.751E-05

[...]

 d Force =-0.6102087E-04[-0.408E-03, 0.286E-03]  d Energy = 0.1786260E-05-0.628E-04
 d Force = 0.7450235E+01[ 0.745E+01, 0.745E+01]  d Ewald  = 0.7450234E+01 0.562E-06

[...]

 d Force =-0.3521534E-03[-0.465E-02, 0.394E-02]  d Energy =-0.1922128E-02 0.157E-02
 d Force = 0.1954198E+02[ 0.196E+02, 0.195E+02]  d Ewald  = 0.1954213E+02-0.146E-03

[...]

 d Force = 0.1449379E-03[-0.153E-03, 0.443E-03]  d Energy =-0.6467780E-04 0.210E-03
 d Force =-0.1052390E-01[-0.105E-01,-0.106E-01]  d Ewald  =-0.1053630E-01 0.124E-04

[...]

 d Force = 0.1396585E-07[-0.320E-07, 0.599E-07]  d Energy = 0.1037778E-04-0.104E-04
 d Force = 0.2788590E-01[ 0.279E-01, 0.279E-01]  d Ewald  = 0.2788590E-01-0.964E-10

[...]

 d Force = 0.1560845E-04[-0.499E-05, 0.362E-04]  d Energy =-0.3699761E-04 0.526E-04
 d Force = 0.4600217E+00[ 0.460E+00, 0.460E+00]  d Ewald  = 0.4600217E+00-0.288E-07

[...]

 d Force = 0.8731272E-04[ 0.998E-05, 0.165E-03]  d Energy = 0.1301252E-03-0.428E-04
 d Force = 0.1572088E+00[ 0.156E+00, 0.158E+00]  d Ewald  = 0.1572085E+00 0.305E-06

[...]

 d Force = 0.1018700E-03[ 0.111E-04, 0.193E-03]  d Energy = 0.1080713E-03-0.620E-05
 d Force =-0.2334156E+01[-0.234E+01,-0.233E+01]  d Ewald  =-0.2334156E+01-0.325E-06

 Conjugate gradient step on ions:
 trial-energy change:   -0.000108  1 .order   -0.000102   -0.000193   -0.000011
  (g-gl).g = 0.800E-04      g.g   = 0.800E-04  gl.gl    = 0.176E-03
 g(Force)  = 0.800E-04   g(Stress)= 0.000E+00 ortho     = 0.517E-05
 gamma     =   0.45562
 trial     =   2.33922
 opt step  =   2.48179  (harmonic =   2.48179) maximal distance =0.00407383
 next E    =   -95.896611   (d E  =  -0.00010)

[...]

 d Force = 0.7431859E-06[ 0.812E-06, 0.675E-06]  d Energy =-0.2913844E-05 0.366E-05
 d Force =-0.1423533E+00[-0.142E+00,-0.142E+00]  d Ewald  =-0.1423533E+00 0.782E-10

[...]

 d Force =-0.9645497E-06[-0.355E-05, 0.162E-05]  d Energy = 0.4470264E-05-0.543E-05
 d Force =-0.2847366E+00[-0.285E+00,-0.285E+00]  d Ewald  =-0.2847366E+00-0.906E-09

[...]

 d Force =-0.4219064E-07[-0.263E-06, 0.179E-06]  d Energy =-0.1642002E-07-0.258E-07
 d Force = 0.1898390E-01[ 0.190E-01, 0.190E-01]  d Ewald  = 0.1898390E-01 0.946E-10

[...]

 d Force =-0.5418917E-08[-0.542E-07, 0.434E-07]  d Energy = 0.9638825E-08-0.151E-07
 d Force = 0.5652259E-02[ 0.565E-02, 0.565E-02]  d Ewald  = 0.5652259E-02 0.131E-09

[...]

 FEWALD executed in parallel

[...]

 eigenvalue-minimisations  :   631
 total energy-change (2. order) : 0.1272799E-03  (-0.1669590E-04)
 number of electron     110.0000298 magnetization      33.0748072
 augmentation part       48.3784657 magnetization      25.7281572

 Broyden mixing:
  rms(total) = 0.43753E-02    rms(broyden)= 0.43475E-02
  rms(prec ) = 0.48658E-02
  weight for this iteration     100.00

 eigenvalues of (default mixing * dielectric matrix)
  average eigenvalue GAMMA=   0.3669
  0.6799  0.2487  0.1719

[...]

----------------------------------------- Iteration   60(   5)  ---------------------------------------

 eigenvalue-minimisations  :   588
 total energy-change (2. order) :-0.8858081E-05  (-0.3158623E-05)
 number of electron     110.0000298 magnetization      33.0748072
 augmentation part       48.3784657 magnetization      25.7281572

 Free energy of the ion-electron system (eV)
  alpha Z        PSCENC =       252.91199290
  Ewald energy   TEWEN  =      9734.28521346
  -1/2 Hartree   DENC   =    -17625.17901908
  -exchange  EXHF       =         0.00000000
  -V(xc)+E(xc)   XCENC  =        92.97422406
  PAW double counting   =      9162.24030246    -9271.53244273
  entropy T*S    EENTRO =         0.00424455
  eigenvalues    EBANDS =      -392.56996132
  atomic energy  EATOM  =      7950.96879731
  free energy    TOTEN  =       -95.89664838 eV

  energy without entropy =      -95.90089293  energy(sigma->0) =      -95.89770952

 average (electrostatic) potential at core
  the test charge radii are     1.0103  0.9406
  (the norm of the test charge is              1.0000)
       1 -50.1023       2 -50.1499       3 -50.1023       4 -50.1482       5 -49.7167
       6 -49.7167       7 -49.7179       8 -49.7179       9 -50.2370      10 -50.0232
      11 -50.2365      12 -50.0292      13 -96.4836      14 -96.4900

 E-fermi :  -0.5774     XC(G=0):  -5.9543     alpha+bet : -4.6873

[...]

 spin component 2

[...]

 k-point   4 :       0.5000    0.5000    0.0000
  band No.  band energies     occupation
      1     -15.9508      1.00000
      2     -15.9447      1.00000
      3      -5.6702      1.00000
      4      -5.6533      1.00000
      5      -5.5518      1.00000
      6      -5.4400      1.00000
      7      -4.6661      1.00000
      8      -4.6466      1.00000
      9      -4.1184      1.00000
     10      -4.0943      1.00000
     11      -4.0427      1.00000
     12      -4.0329      1.00000
     13      -2.9638      1.00000
     14      -2.8600      1.00000
     15      -2.8159      1.00000
     16      -2.8068      1.00000
     17      -2.5932      1.00000
     18      -2.4495      1.00000
     19      -2.4352      1.00000
     20      -2.4170      1.00000
     21      -2.4118      1.00000
     22      -2.3325      1.00000
     23      -2.3322      1.00000
     24      -2.2764      1.00000
     25      -2.0453      1.00000
     26      -2.0084      1.00000
     27      -2.0054      1.00000
     28      -2.0017      1.00000
     29      -1.9647      1.00000
     30      -1.9309      1.00000
     31      -1.9091      1.00000
     32      -1.9050      1.00000
     33      -1.4935      1.00000
     34      -1.4174      1.00000
     35      -1.4025      1.00000
     36      -1.3799      1.00000
     37      -0.6511      1.02995
     38      -0.6071      0.79368
     39      -0.4700     -0.04776
     40      -0.4334     -0.01561
     41      -0.4262     -0.01008
     42      -0.4194     -0.00570
     43      -0.4145     -0.00311
     44      -0.3680      0.00479
     45      -0.3664      0.00473
     46      -0.3525      0.00388
     47      -0.3201      0.00165
     48      -0.2257      0.00002
     49      -0.1643      0.00000
     50      -0.0781      0.00000
     51      -0.0686      0.00000
     52      -0.0222      0.00000
     53       0.4916      0.00000
     54       0.4974      0.00000
     55       0.5042      0.00000
     56       0.5103      0.00000
     57       0.6345      0.00000
     58       0.7822      0.00000
     59       0.8790      0.00000
     60       0.9086      0.00000
     61       0.9411      0.00000
     62       0.9696      0.00000
     63       0.9828      0.00000
     64       0.9893      0.00000
     65       1.0225      0.00000
     66       1.0505      0.00000
     67       1.1458      0.00000
     68       1.1721      0.00000
     69       1.2742      0.00000
     70       1.2746      0.00000
     71       1.3030      0.00000
     72       1.3363      0.00000
     73       1.8275      0.00000

[...]

 soft charge-density along one line, spin component           2
         0         1         2         3         4         5         6         7         8         9
 total charge-density along one line

------------------------ aborting loop because EDIFF is reached ----------------------------------------

  FORCE on cell =-STRESS in cart. coord.  units (eV):
  Direction    XX          YY          ZZ          XY          YZ          ZX
  Alpha Z   252.91199   252.91199   252.91199
  Ewald   14232.14857 14630.12922-19128.00384    -0.00000     2.14206    -0.00000
  Hartree 16354.89590 16634.54560-15364.40388    -0.00000     0.77419    -0.00000
  E(xc)    -527.97675  -527.36746  -527.91974    -0.00000     0.01352    -0.00000
  Local  -31688.41968-32355.74491 33414.51517     0.00000    -2.75005    -0.00000
  n-local  -156.72999  -159.75677  -154.80493    -0.00003     0.07399    -0.00002
  augment   427.36664   427.76838   423.75831     0.00000    -0.02751     0.00000
  Kinetic  1095.72673  1093.03919  1083.27391    -0.00004    -0.28420     0.00002
  Fock        0.00000     0.00000     0.00000     0.00000     0.00000     0.00000
  Total     -10.07658    -4.47477    -0.67300     0.00000    -0.05801     0.00000
  in kB     -33.83564   -15.02559    -2.25983     0.00000    -0.19480     0.00000

 VOLUME and BASIS-vectors are now :
  energy-cutoff  :      350.00
  volume of cell :      477.14
      direct lattice vectors                 reciprocal lattice vectors
     5.640000000  0.000000000  0.000000000     0.177304965  0.000000000  0.000000000
     0.000000000  5.640000000  0.000000000     0.000000000  0.177304965  0.000000000
     0.000000000  0.000000000 15.000000000     0.000000000  0.000000000  0.066666667

  length of vectors
     5.640000000  5.640000000 15.000000000     0.177304965  0.177304965  0.066666667

 FORCES acting on ions
    electron-ion (+dipol)            ewald-force                    non-local-force                 convergence-correction
   -.279E-13 0.177E+01 0.106E+04   0.443E-13 -.179E+01 -.105E+04   0.000E+00 -.511E-01 -.607E+01   -.598E-14 0.229E-02 0.108E-01
   0.328E-12 0.431E+01 0.106E+04   0.371E-13 -.441E+01 -.105E+04   0.000E+00 0.626E-01 -.630E+01   -.205E-13 0.195E-02 0.127E-01
   -.220E-13 -.173E+01 0.106E+04   0.447E-13 0.176E+01 -.105E+04   0.000E+00 0.483E-01 -.607E+01   -.102E-13 -.238E-02 0.549E-02
   0.320E-12 -.429E+01 0.106E+04   0.485E-13 0.439E+01 -.105E+04   0.000E+00 -.661E-01 -.629E+01   -.159E-13 -.233E-02 0.223E-02
   0.118E+02 0.358E-01 0.175E+03   -.123E+02 -.188E-01 -.175E+03   0.282E+00 -.174E-02 -.343E+00   -.175E-02 -.103E-01 -.234E-02
   -.118E+02 0.358E-01 0.175E+03   0.123E+02 -.188E-01 -.175E+03   -.282E+00 -.174E-02 -.343E+00   0.175E-02 -.103E-01 -.234E-02
   -.870E+01 -.357E+00 0.155E+03   0.839E+01 0.357E+00 -.155E+03   0.304E+00 -.416E-02 -.260E+00   -.200E-02 0.108E-01 0.178E-02
   0.870E+01 -.357E+00 0.155E+03   -.839E+01 0.357E+00 -.155E+03   -.304E+00 -.416E-02 -.260E+00   0.200E-02 0.108E-01 0.178E-02
   -.251E-13 0.750E+01 -.676E+03   -.423E-13 -.756E+01 0.673E+03   0.000E+00 0.519E-01 0.347E+01   0.260E-13 0.509E-02 -.252E-01
   0.306E-12 0.391E+02 -.775E+03   0.312E-13 -.383E+02 0.768E+03   0.000E+00 -.878E+00 0.694E+01   -.121E-13 0.333E-01 -.374E-02
   -.242E-13 -.570E+01 -.675E+03   -.180E-13 0.584E+01 0.672E+03   0.000E+00 -.117E+00 0.345E+01   0.264E-13 -.221E-01 -.519E-02
   0.308E-12 -.389E+02 -.775E+03   0.701E-13 0.380E+02 0.768E+03   0.000E+00 0.851E+00 0.699E+01   -.135E-13 0.175E-01 -.351E-01
   -.377E-13 0.157E+01 -.993E+03   -.379E-14 -.157E+01 0.995E+03   0.000E+00 -.182E-01 -.190E+01   0.716E-14 0.152E-01 -.141E-01
   -.147E-13 -.291E+01 -.993E+03   -.711E-14 0.295E+01 0.995E+03   0.000E+00 -.482E-01 -.190E+01   0.789E-14 0.119E-01 -.503E-02
   0.238E-11 0.128E+00 0.896E+01   0.168E-14 -.369E-13 -.568E-12   0.000E+00 -.177E+00 -.890E+01   0.442E-14 0.614E-01 -.584E-01

 POSITION                                       TOTAL-FORCE (eV/Angst)
      0.00000      0.00000      0.00000         0.000000     -0.072960      0.017214
      2.82000      0.00000      0.00000         0.000000     -0.037142      0.074147
      0.00000      2.82000      0.00000         0.000000      0.068487      0.013451
      2.82000      2.82000      0.00000         0.000000      0.034024      0.075996
      1.41000      1.41000      1.41000        -0.245124      0.004066     -0.129058
      4.23000      1.41000      1.41000         0.245124      0.004066     -0.129058
      1.41000      4.23000      1.41000        -0.011429      0.006557      0.036373
      4.23000      4.23000      1.41000         0.011429      0.006557      0.036373
      0.00000     -0.00253      2.94605         0.000000     -0.002383     -0.000209
      2.82000      0.09414      2.83886         0.000000     -0.005652      0.001772
      0.00000      2.82987      2.94229         0.000000     -0.000663      0.002245
      2.82000      2.72726      2.83969         0.000000     -0.000784      0.001714
      0.00000      0.03097      5.13620         0.000000     -0.002838     -0.001933
      0.00000      2.85029      5.13134         0.000000     -0.001337      0.000973
    total drift:                                0.000000      0.012651      0.003271

  FREE ENERGIE OF THE ION-ELECTRON SYSTEM (eV)
  free  energy   TOTEN  =       -95.89664838 eV

  energy  without entropy=      -95.90089293  energy(sigma->0) =      -95.89770952

 d Force = 0.2512585E-04[-0.691E-05, 0.572E-04]  d Energy = 0.2610166E-04-0.976E-06
 d Force =-0.1545903E+01[-0.155E+01,-0.155E+01]  d Ewald  =-0.1545903E+01 0.567E-07

 Conjugate gradient step on ions:
 trial-energy change:   -0.000026  1 .order   -0.000025   -0.000057    0.000007
  (g-gl).g = 0.314E-04      g.g   = 0.243E-04  gl.gl    = 0.800E-04
 g(Force)  = 0.243E-04   g(Stress)= 0.000E+00 ortho     =-0.139E-05
 gamma     =   0.39290
 trial     =   2.40199
 opt step  =   2.14301  (harmonic =   2.14301) maximal distance =0.00150669
 next E    =   -95.896648   (d E  =  -0.00003)

 reached required accuracy - stopping structural energy minimisation