 vasp.5.3.3 18Dez12 (build Sep  7 2015 22:32:56) complex

 executed on             LinuxIFC date 2022.12.22  18:47:16

 INCAR:
 POTCAR:    PAW_PBE Li 17Jan2003
 POTCAR:    PAW_PBE Li 17Jan2003
   VRHFIN =Li: s1p0

   TITEL  = PAW_PBE Li 17Jan2003
   POMASS =    7.010; ZVAL   =    1.000    mass and valenz
   ENMAX  =  140.000; ENMIN  =  100.000 eV

  PAW_PBE Li 17Jan2003                  :

 POSCAR: Li4
  positions in direct lattice
 exchange correlation table for  LEXCH =        8
   RHO(1)=    0.500       N(1)  =     2000
   RHO(2)=  100.500       N(2)  =     4000

 ion  position               nearest neighbor table
   1  0.000  0.000  0.000-   4 3.05   4 3.05   2 3.05   3 3.05   2 3.05   2 3.05   2 3.05   3 3.05
                             3 3.05   3 3.05   4 3.05   4 3.05
   2  0.000  0.500  0.500-   3 3.05   3 3.05   1 3.05   4 3.05   1 3.05   1 3.05   1 3.05   4 3.05
                             4 3.05   4 3.05   3 3.05   3 3.05
   3  0.500  0.000  0.500-   2 3.05   2 3.05   1 3.05   4 3.05   1 3.05   4 3.05   4 3.05   1 3.05
                             4 3.05   1 3.05   2 3.05   2 3.05
   4  0.500  0.500  0.000-   1 3.05   1 3.05   2 3.05   3 3.05   2 3.05   3 3.05   3 3.05   3 3.05
                             2 3.05   2 3.05   1 3.05   1 3.05

  LATTYP: Found a simple cubic cell.
 ALAT       =     4.3198900000

  Lattice vectors:

 A1 = (   4.3198900000,   0.0000000000,   0.0000000000)
 A2 = (   0.0000000000,   4.3198900000,   0.0000000000)
 A3 = (   0.0000000000,   0.0000000000,   4.3198900000)

Analysis of symmetry for initial positions (statically):
 Subroutine PRICEL returns following result:

  LATTYP: Found a face centered cubic cell.
 ALAT       =     4.3198900000

[...]

   4 primitive cells build up your supercell.

 Routine SETGRP: Setting up the symmetry group for a
 simple cubic supercell.

 Subroutine GETGRP returns: Found 48 space group operations
 (whereof 48 operations were pure point group operations)
 out of a pool of 48 trial point group operations.

The static configuration has the point symmetry O_h .

Analysis of symmetry for dynamics (positions and initial velocities):
 Subroutine PRICEL returns following result:

  LATTYP: Found a face centered cubic cell.
 ALAT       =     4.3198900000

  Lattice vectors:

 A1 = (   2.1599450000,   2.1599450000,   0.0000000000)
 A2 = (   2.1599450000,   0.0000000000,  -2.1599450000)
 A3 = (   0.0000000000,   2.1599450000,  -2.1599450000)

   4 primitive cells build up your supercell.

 Routine SETGRP: Setting up the symmetry group for a
 simple cubic supercell.

 Subroutine GETGRP returns: Found 48 space group operations
 (whereof 48 operations were pure point group operations)
 out of a pool of 48 trial point group operations.

The dynamic configuration has the point symmetry O_h .

Analysis of magnetic symmetry:

 Subroutine MAGSYM returns: Found 48 space group operations
 (whereof 48 operations were pure point group operations)
 out of a pool of 48 trial space group operations
 (whereof 48 operations were pure point group operations)
 and found also     4 'primitive' translations

The magnetic configuration has the point symmetry O_h .

 irot  :   1
 isymop:   1   0   0
           0   1   0
           0   0   1

 gtrans:     0.0000000     0.0000000     0.0000000

 ptrans:     0.0000000     0.0000000     0.0000000
 rotmap:
 (   1->   1)  (   2->   2)  (   3->   3)  (   4->   4)

[...]

 irot  :  48
 isymop:   0   0   1
           0   1   0
           1   0   0

 gtrans:     0.0000000     0.0000000     0.0000000

[...]

 ptrans:     0.0000000     0.5000000     0.5000000
 rotmap:
 (   1->   2)  (   2->   3)  (   3->   4)  (   4->   1)

 KPOINTS: K-Points

Automatic generation of k-mesh.
Space group operators:
 irot       det(A)        alpha          n_x          n_y          n_z        tau_x        tau_y        tau_z
    1     1.000000     0.000000     1.000000     0.000000     0.000000     0.000000     0.000000     0.000000
    2    -1.000000     0.000000     1.000000     0.000000     0.000000     0.000000     0.000000     0.000000
    3     1.000000   120.000000    -0.577350    -0.577350    -0.577350     0.000000     0.000000     0.000000
    4    -1.000000   120.000000    -0.577350    -0.577350    -0.577350     0.000000     0.000000     0.000000
    5     1.000000   120.000000     0.577350     0.577350     0.577350     0.000000     0.000000     0.000000
    6    -1.000000   120.000000     0.577350     0.577350     0.577350     0.000000     0.000000     0.000000
    7     1.000000    90.000000     0.000000     0.000000    -1.000000     0.000000     0.000000     0.000000
    8    -1.000000    90.000000     0.000000     0.000000    -1.000000     0.000000     0.000000     0.000000
    9     1.000000   180.000000     0.000000    -0.707107    -0.707107     0.000000     0.000000     0.000000
   10    -1.000000   180.000000     0.000000    -0.707107    -0.707107     0.000000     0.000000     0.000000
   11     1.000000    90.000000     0.000000     1.000000     0.000000     0.000000     0.000000     0.000000
   12    -1.000000    90.000000     0.000000     1.000000     0.000000     0.000000     0.000000     0.000000
   13     1.000000   180.000000    -0.000000    -0.000000     1.000000     0.000000     0.000000     0.000000
   14    -1.000000   180.000000    -0.000000    -0.000000     1.000000     0.000000     0.000000     0.000000
   15     1.000000   120.000000    -0.577350     0.577350     0.577350     0.000000     0.000000     0.000000
   16    -1.000000   120.000000    -0.577350     0.577350     0.577350     0.000000     0.000000     0.000000
   17     1.000000   120.000000    -0.577350     0.577350    -0.577350     0.000000     0.000000     0.000000
   18    -1.000000   120.000000    -0.577350     0.577350    -0.577350     0.000000     0.000000     0.000000
   19     1.000000    90.000000    -0.000000    -0.000000     1.000000     0.000000     0.000000     0.000000
   20    -1.000000    90.000000    -0.000000    -0.000000     1.000000     0.000000     0.000000     0.000000
   21     1.000000    90.000000    -1.000000     0.000000    -0.000000     0.000000     0.000000     0.000000
   22    -1.000000    90.000000    -1.000000     0.000000    -0.000000     0.000000     0.000000     0.000000
   23     1.000000   180.000000    -0.707107     0.000000    -0.707107     0.000000     0.000000     0.000000
   24    -1.000000   180.000000    -0.707107     0.000000    -0.707107     0.000000     0.000000     0.000000
   25     1.000000   120.000000     0.577350    -0.577350     0.577350     0.000000     0.000000     0.000000
   26    -1.000000   120.000000     0.577350    -0.577350     0.577350     0.000000     0.000000     0.000000
   27     1.000000   120.000000    -0.577350    -0.577350     0.577350     0.000000     0.000000     0.000000
   28    -1.000000   120.000000    -0.577350    -0.577350     0.577350     0.000000     0.000000     0.000000
   29     1.000000   180.000000     1.000000    -0.000000     0.000000     0.000000     0.000000     0.000000
   30    -1.000000   180.000000     1.000000    -0.000000     0.000000     0.000000     0.000000     0.000000
   31     1.000000    90.000000    -0.000000    -1.000000     0.000000     0.000000     0.000000     0.000000
   32    -1.000000    90.000000    -0.000000    -1.000000     0.000000     0.000000     0.000000     0.000000
   33     1.000000   180.000000     0.707107     0.707107     0.000000     0.000000     0.000000     0.000000
   34    -1.000000   180.000000     0.707107     0.707107     0.000000     0.000000     0.000000     0.000000
   35     1.000000    90.000000     1.000000    -0.000000    -0.000000     0.000000     0.000000     0.000000
   36    -1.000000    90.000000     1.000000    -0.000000    -0.000000     0.000000     0.000000     0.000000
   37     1.000000   120.000000     0.577350    -0.577350    -0.577350     0.000000     0.000000     0.000000
   38    -1.000000   120.000000     0.577350    -0.577350    -0.577350     0.000000     0.000000     0.000000
   39     1.000000   180.000000     0.000000     1.000000     0.000000     0.000000     0.000000     0.000000
   40    -1.000000   180.000000     0.000000     1.000000     0.000000     0.000000     0.000000     0.000000
   41     1.000000   120.000000     0.577350     0.577350    -0.577350     0.000000     0.000000     0.000000
   42    -1.000000   120.000000     0.577350     0.577350    -0.577350     0.000000     0.000000     0.000000
   43     1.000000   180.000000    -0.000000    -0.707107     0.707107     0.000000     0.000000     0.000000
   44    -1.000000   180.000000    -0.000000    -0.707107     0.707107     0.000000     0.000000     0.000000
   45     1.000000   180.000000     0.707107    -0.707107     0.000000     0.000000     0.000000     0.000000
   46    -1.000000   180.000000     0.707107    -0.707107     0.000000     0.000000     0.000000     0.000000
   47     1.000000   180.000000     0.707107    -0.000000    -0.707107     0.000000     0.000000     0.000000
   48    -1.000000   180.000000     0.707107    -0.000000    -0.707107     0.000000     0.000000     0.000000

 Subroutine IBZKPT returns following result:

 Found     10 irreducible k-points:

 Following reciprocal coordinates:
            Coordinates               Weight
  0.000000  0.000000  0.000000      1.000000
  0.200000  0.000000  0.000000      6.000000
  0.400000  0.000000  0.000000      6.000000
  0.200000  0.200000  0.000000     12.000000
  0.400000  0.200000  0.000000     24.000000
  0.400000  0.400000  0.000000     12.000000
  0.200000  0.200000  0.200000      8.000000
  0.400000  0.200000  0.200000     24.000000
  0.400000  0.400000  0.200000     24.000000
  0.400000  0.400000  0.400000      8.000000

 Following cartesian coordinates:
            Coordinates               Weight
  0.000000  0.000000  0.000000      1.000000
  0.046297 -0.000000  0.000000      6.000000
  0.092595 -0.000000  0.000000      6.000000
  0.046297  0.046297  0.000000     12.000000
  0.092595  0.046297  0.000000     24.000000
  0.092595  0.092595  0.000000     12.000000
  0.046297  0.046297  0.046297      8.000000
  0.092595  0.046297  0.046297     24.000000
  0.092595  0.092595  0.046297     24.000000
  0.092595  0.092595  0.092595      8.000000

 I would recommend the setting:
   dimension x,y,z NGX =    20 NGY =   20 NGZ =   20
 SYSTEM =  Crystal
 POSCAR =  Li4

 Startparameter for this run:
   NWRITE =      2    write-flag & timer
   PREC   = normal    normal or accurate (medium, high low for compatibility)
   ISTART =      0    job   : 0-new  1-cont  2-samecut
   ICHARG =      2    charge: 1-file 2-atom 10-const
   ISPIN  =      2    spin polarized calculation?
   LNONCOLLINEAR =      F non collinear calculations
   LSORBIT =      F    spin-orbit coupling
   INIWAV =      1    electr: 0-lowe 1-rand  2-diag
   LASPH  =      F    aspherical Exc in radial PAW
   METAGGA=      F    non-selfconsistent MetaGGA calc.

 Electronic Relaxation 1
   ENCUT  =  350.0 eV  25.72 Ry    5.07 a.u.   6.59  6.59  6.59*2*pi/ulx,y,z
   ENINI  =  350.0     initial cutoff
   ENAUG  =  331.6 eV  augmentation charge cutoff
[...]
   KINTER  =     0    interpolate to denser k-point grid
   CSHIFT  =0.1000    complex shift for real part using Kramers Kronig
   OMEGAMAX=  -1.0    maximum frequency
   DEG_THRESHOLD= 0.2000000E-02 threshold for treating states as degnerate
   RTIME   =    0.100 relaxation time in fs

 Orbital magnetization related:
   ORBITALMAG=     F  switch on orbital magnetization
   LCHIMAG   =     F  perturbation theory with respect to B field
   DQ        =  0.001000  dq finite difference perturbation B field

 conjugate gradient relaxation of ions
 charge density and potential will be updated during run
 spin polarized calculation
 RMM-DIIS sequential band-by-band and
  variant of blocked Davidson during initial phase
 perform sub-space diagonalisation
    before iterative eigenvector-optimisation
 modified Broyden-mixing scheme, WC =      100.0
 initial mixing is a Kerker type mixing with AMIX =  0.4000 and BMIX =      1.0000
 Hartree-type preconditioning will be used
 using additional bands            6
 reciprocal scheme for non local part
 use partial core corrections
 calculate Harris-corrections to forces
   (improved forces if not selfconsistent)
 use gradient corrections
 use of overlap-Matrix (Vanderbilt PP)
 Methfessel and Paxton  Order N= 2 SIGMA  =   0.10

  energy-cutoff  :      350.00
  volume of cell :       80.62
      direct lattice vectors                 reciprocal lattice vectors
     4.319890000  0.000000000  0.000000000     0.231487376 -0.000000000  0.000000000
     0.000000000  4.319890000  0.000000000     0.000000000  0.231487376  0.000000000
     0.000000000  0.000000000  4.319890000    -0.000000000 -0.000000000  0.231487376

  length of vectors
     4.319890000  4.319890000  4.319890000     0.231487376  0.231487376  0.231487376

 k-points in units of 2pi/SCALE and weight: K-Points
   0.00000000  0.00000000  0.00000000       0.008
   0.04629748 -0.00000000  0.00000000       0.048
   0.09259495 -0.00000000  0.00000000       0.048
   0.04629748  0.04629748  0.00000000       0.096
   0.09259495  0.04629748  0.00000000       0.192
   0.09259495  0.09259495  0.00000000       0.096
   0.04629748  0.04629748  0.04629748       0.064
   0.09259495  0.04629748  0.04629748       0.192
   0.09259495  0.09259495  0.04629748       0.192
   0.09259495  0.09259495  0.09259495       0.064

 k-points in reciprocal lattice and weights: K-Points
   0.00000000  0.00000000  0.00000000       0.008
   0.20000000  0.00000000  0.00000000       0.048
   0.40000000  0.00000000  0.00000000       0.048
   0.20000000  0.20000000  0.00000000       0.096
   0.40000000  0.20000000  0.00000000       0.192
   0.40000000  0.40000000  0.00000000       0.096
   0.20000000  0.20000000  0.20000000       0.064
   0.40000000  0.20000000  0.20000000       0.192
   0.40000000  0.40000000  0.20000000       0.192
   0.40000000  0.40000000  0.40000000       0.064

 position of ions in fractional coordinates (direct lattice)
   0.00000000  0.00000000  0.00000000
   0.00000000  0.50000000  0.50000000
   0.50000000  0.00000000  0.50000000
   0.50000000  0.50000000  0.00000000

 position of ions in cartesian coordinates  (Angst):
   0.00000000  0.00000000  0.00000000
   0.00000000  2.15994500  2.15994500
   2.15994500  0.00000000  2.15994500
   2.15994500  2.15994500  0.00000000

 k-point  1 :   0.0000 0.0000 0.0000  plane waves:    1213
 k-point  2 :   0.2000 0.0000 0.0000  plane waves:    1201
 k-point  3 :   0.4000 0.0000 0.0000  plane waves:    1197
 k-point  4 :   0.2000 0.2000 0.0000  plane waves:    1207
 k-point  5 :   0.4000 0.2000 0.0000  plane waves:    1210
 k-point  6 :   0.4000 0.4000 0.0000  plane waves:    1198
 k-point  7 :   0.2000 0.2000 0.2000  plane waves:    1211
 k-point  8 :   0.4000 0.2000 0.2000  plane waves:    1186
 k-point  9 :   0.4000 0.4000 0.2000  plane waves:    1190
 k-point 10 :   0.4000 0.4000 0.4000  plane waves:    1196

 maximum and minimum number of plane-waves per node :      1213     1186

 maximum number of plane-waves:      1213
 maximum index in each direction:
   IXMAX=    6   IYMAX=    6   IZMAX=    6
   IXMIN=   -6   IYMIN=   -6   IZMIN=   -6

 WARNING: aliasing errors must be expected set NGX to  26 to avoid them
 WARNING: aliasing errors must be expected set NGY to  26 to avoid them
 WARNING: aliasing errors must be expected set NGZ to  26 to avoid them
 aliasing errors are usually negligible using standard VASP settings
 and one can safely disregard these warnings

 serial   3D FFT for wavefunctions
 parallel 3D FFT for charge:
    minimum data exchange during FFTs selected (reduces bandwidth)

 Broyden mixing: mesh for mixing (old mesh)
   NGX = 13   NGY = 13   NGZ = 13
  (NGX  = 40   NGY  = 40   NGZ  = 40)
  gives a total of   2197 points

 initial charge density was supplied:
 charge density of overlapping atoms calculated
 number of electron       4.0000000 magnetization       4.0000000
 keeping initial charge density in first step

 Maximum index for augmentation-charges         3071 (set IRDMAX)

 First call to EWALD:  gamma=   0.410
 Maximum number of real-space cells 3x 3x 3
 Maximum number of reciprocal cells 3x 3x 3

 FEWALD executed in parallel

----------------------------------------- Iteration    1(   1)  ---------------------------------------

 eigenvalue-minimisations  :   328
 total energy-change (2. order) :-0.5132575E+01  (-0.1060604E+03)
 number of electron       4.0000000 magnetization       4.0000000
 augmentation part        4.0000000 magnetization       4.0000000

 Free energy of the ion-electron system (eV)
  alpha Z        PSCENC =         0.51993978
  Ewald energy   TEWEN  =       -30.56607402
  -1/2 Hartree   DENC   =        -0.01823458
  -exchange  EXHF       =         0.00000000
  -V(xc)+E(xc)   XCENC  =       -15.85737038
  PAW double counting   =        30.11914309       -7.88618898
  entropy T*S    EENTRO =        -0.00003913
  eigenvalues    EBANDS =        -2.64409130
  atomic energy  EATOM  =        21.20034096
  free energy    TOTEN  =        -5.13257457 eV

  energy without entropy =       -5.13253544  energy(sigma->0) =       -5.13256479

[...]

 Broyden mixing:
  rms(total) = 0.27366E+00    rms(broyden)= 0.27366E+00
  rms(prec ) = 0.27896E+00
  weight for this iteration     100.00

[...]

 eigenvalues of (default mixing * dielectric matrix)
  average eigenvalue GAMMA=   1.5033
  1.5033

[...]

 eigenvalue-minimisations  :   318
 total energy-change (2. order) : 0.8962846E-05  (-0.6138913E-04)
 number of electron       4.0000000 magnetization       0.0053551
 augmentation part        0.0312529 magnetization       0.0468508

[...]

 average (electrostatic) potential at core
  the test charge radii are     0.9748
  (the norm of the test charge is              1.0000)
       1 -30.5217       2 -30.5217       3 -30.5217       4 -30.5217

 E-fermi :   0.1986     XC(G=0):  -6.7813     alpha+bet : -7.2874

 spin component 1

 k-point   1 :       0.0000    0.0000    0.0000
  band No.  band energies     occupation
      1      -3.1696      1.00000
      2       1.9481      0.00000
      3       1.9481      0.00000
      4       1.9481      0.00000
      5       5.1400      0.00000
      6       5.1400      0.00000
      7       5.1400      0.00000
      8       8.8938      0.00000

[...]

 soft charge-density along one line, spin component           1
         0         1         2         3         4         5         6         7         8         9
 total charge-density along one line

[...]

------------------------ aborting loop because EDIFF is reached ----------------------------------------

  FORCE on cell =-STRESS in cart. coord.  units (eV):
  Direction    XX          YY          ZZ          XY          YZ          ZX
  Alpha Z     0.51994     0.51994     0.51994
  Ewald     -10.18870   -10.18870   -10.18870    -0.00000     0.00000     0.00000
  Hartree     0.01740     0.01740     0.01740    -0.00000    -0.00000    -0.00000
  E(xc)      -7.03546    -7.03546    -7.03546     0.00000    -0.00000    -0.00000
  Local       0.55194     0.55194     0.55194     0.00000     0.00000     0.00000
  n-local     5.51939     6.12425     6.72492     0.17221    -0.05939    -0.01686
  augment     0.26029     0.26029     0.26029     0.00000     0.00000     0.00000
  Kinetic    15.77634     9.49525     4.16522    -2.63764     1.44397     0.62460
  Fock        0.00000     0.00000     0.00000     0.00000     0.00000     0.00000
  Total       0.06055     0.06055     0.06055     0.00000     0.00000    -0.00000
  in kB       1.20339     1.20339     1.20339     0.00000     0.00000    -0.00000

 VOLUME and BASIS-vectors are now :
  energy-cutoff  :      350.00
  volume of cell :       80.62
      direct lattice vectors                 reciprocal lattice vectors
     4.319890000  0.000000000  0.000000000     0.231487376 -0.000000000  0.000000000
     0.000000000  4.319890000  0.000000000     0.000000000  0.231487376  0.000000000
     0.000000000  0.000000000  4.319890000    -0.000000000 -0.000000000  0.231487376

[...]

 FORCES acting on ions
    electron-ion (+dipol)            ewald-force                    non-local-force                 convergence-correction
   -.238E-15 0.612E-16 0.120E-15   0.406E-16 -.739E-16 -.813E-16   0.514E-25 -.620E-24 0.165E-23   -.113E-16 -.407E-17 0.277E-16
   -.337E-16 -.422E-15 -.109E-15   0.397E-16 0.214E-16 0.330E-16   -.116E-23 -.414E-24 -.186E-23   -.104E-16 0.415E-17 -.285E-16
   -.715E-15 0.193E-16 -.120E-14   -.341E-16 -.348E-16 0.325E-16   -.135E-23 0.103E-23 0.620E-24   0.102E-16 -.416E-17 -.284E-16
   -.900E-15 -.284E-15 0.102E-14   -.350E-16 0.606E-16 0.164E-16   0.592E-24 -.620E-24 0.165E-23   0.110E-16 0.409E-17 0.270E-16
   -.189E-14 -.625E-15 -.174E-15   0.112E-16 -.267E-16 0.706E-18   -.187E-23 -.620E-24 0.207E-23   -.462E-18 0.954E-20 -.220E-17

 POSITION                                       TOTAL-FORCE (eV/Angst)
      0.00000      0.00000      0.00000         0.000000     -0.000000      0.000000
      0.00000      2.15995      2.15995        -0.000000     -0.000000      0.000000
      2.15995      0.00000      2.15995        -0.000000      0.000000     -0.000000
      2.15995      2.15995      0.00000         0.000000      0.000000     -0.000000
    total drift:                               -0.000000     -0.000000     -0.000000

  FREE ENERGIE OF THE ION-ELECTRON SYSTEM (eV)
  free  energy   TOTEN  =        -7.63858534 eV

  energy  without entropy=       -7.63933140  energy(sigma->0) =       -7.63877185

[...]

 d Force = 0.0000000E+00[ 0.000E+00, 0.000E+00]  d Energy = 0.3089112E-03-0.309E-03
 d Force = 0.0000000E+00[ 0.000E+00, 0.000E+00]  d Ewald  =-0.2230533E-01 0.223E-01

 Steepest descent step on ions:
 trial-energy change:   -0.000309  1 .order   -0.000118   -0.000133   -0.000103
  (g-gl).g = 0.133E-03      g.g   = 0.133E-03  gl.gl    = 0.000E+00
 g(Force)  = 0.213E-65   g(Stress)= 0.133E-03 ortho     = 0.000E+00
 gamma     =   0.00000
 trial     =   1.00000
 opt step  =   4.00000  (harmonic =   4.42612) maximal distance =0.00000000
 next E    =    -7.638879   (d E  =  -0.00029)

 FEWALD executed in parallel

[...]

 eigenvalue-minimisations  :     5
 total energy-change (2. order) : 0.1447098E-05  (-0.8941695E-41)
 number of electron       4.0000000 magnetization       0.0005443
 augmentation part        0.0309739 magnetization      -0.0000094

 Broyden mixing:
  rms(total) = 0.30587E-04    rms(broyden)= 0.30587E-04
  rms(prec ) = 0.34145E-04
  weight for this iteration     100.00

 eigenvalues of (default mixing * dielectric matrix)
  average eigenvalue GAMMA=   1.7494
  0.7842  2.7146

[...]

----------------------------------------- Iteration    3(   4)  ---------------------------------------

 eigenvalue-minimisations  :     4
 total energy-change (2. order) :-0.5633635E-07  (-0.1893394E-98)
 number of electron       4.0000000 magnetization       0.0005443
 augmentation part        0.0309739 magnetization      -0.0000094

 Free energy of the ion-electron system (eV)
  alpha Z        PSCENC =         0.51540989
  Ewald energy   TEWEN  =       -30.47704759
  -1/2 Hartree   DENC   =        -0.05151546
  -exchange  EXHF       =         0.00000000
  -V(xc)+E(xc)   XCENC  =       -17.00353220
  PAW double counting   =        37.09411016      -14.89092032
  entropy T*S    EENTRO =         0.00075087
  eigenvalues    EBANDS =        -4.02664414
  atomic energy  EATOM  =        21.20034096
  free energy    TOTEN  =        -7.63904783 eV

  energy without entropy =       -7.63979870  energy(sigma->0) =       -7.63923555

 average (electrostatic) potential at core
  the test charge radii are     0.9748
  (the norm of the test charge is              1.0000)
       1 -30.5674       2 -30.5674       3 -30.5674       4 -30.5674

 E-fermi :   0.1758     XC(G=0):  -6.7632     alpha+bet : -7.2239

[...]

 spin component 2

[...]

 k-point  10 :       0.4000    0.4000    0.4000
  band No.  band energies     occupation
      1      -0.4234      1.00000
      2       0.4617      0.00056
      3       0.4617      0.00056
      4       0.4617      0.00056
      5       3.5332      0.00000
      6       3.5332      0.00000
      7       3.5332      0.00000
      8       4.5229      0.00000

[...]

 soft charge-density along one line, spin component           2
         0         1         2         3         4         5         6         7         8         9
 total charge-density along one line

------------------------ aborting loop because EDIFF is reached ----------------------------------------

  FORCE on cell =-STRESS in cart. coord.  units (eV):
  Direction    XX          YY          ZZ          XY          YZ          ZX
  Alpha Z     0.51541     0.51541     0.51541
  Ewald     -10.15902   -10.15902   -10.15902    -0.00000     0.00000     0.00000
  Hartree     0.01717     0.01717     0.01717    -0.00000    -0.00000    -0.00000
  E(xc)      -7.00974    -7.00974    -7.00974     0.00000    -0.00000    -0.00000
  Local       0.54975     0.54975     0.54975     0.00000     0.00000     0.00000
  n-local     5.48365     6.08070     6.67363     0.17058    -0.05900    -0.01681
  augment     0.25798     0.25798     0.25798     0.00000     0.00000    -0.00000
  Kinetic    15.68436     9.43624     4.12700    -2.62462     1.43297     0.61913
  Fock        0.00000     0.00000     0.00000     0.00000     0.00000     0.00000
  Total       0.00008     0.00008     0.00008     0.00000     0.00000     0.00000
  in kB       0.00157     0.00157     0.00157     0.00000     0.00000     0.00000

 VOLUME and BASIS-vectors are now :
  energy-cutoff  :      350.00
  volume of cell :       81.32
      direct lattice vectors                 reciprocal lattice vectors
     4.332508820  0.000000000  0.000000000     0.230813148 -0.000000000 -0.000000000
     0.000000000  4.332508820  0.000000000    -0.000000000  0.230813148  0.000000000
     0.000000000  0.000000000  4.332508820    -0.000000000 -0.000000000  0.230813148

  length of vectors
     4.332508820  4.332508820  4.332508820     0.230813148  0.230813148  0.230813148

 FORCES acting on ions
    electron-ion (+dipol)            ewald-force                    non-local-force                 convergence-correction
   -.337E-15 -.925E-16 0.208E-15   0.137E-16 -.107E-15 -.208E-16   -.253E-23 0.165E-23 -.496E-23   -.335E-16 0.263E-17 0.743E-17
   -.333E-15 -.442E-16 0.243E-16   0.840E-17 0.420E-16 0.810E-16   -.222E-23 -.579E-23 -.331E-23   -.336E-16 -.273E-17 -.887E-17
   -.119E-14 -.223E-15 -.131E-14   -.178E-16 -.523E-16 -.500E-17   0.127E-23 -.165E-23 -.165E-23   0.385E-16 0.223E-17 -.876E-17
   -.934E-15 -.177E-15 0.107E-14   -.231E-16 0.971E-16 -.328E-16   -.118E-23 -.331E-23 0.517E-23   0.378E-16 -.309E-17 0.781E-17
   -.279E-14 -.537E-15 -.787E-17   -.188E-16 -.207E-16 0.225E-16   -.467E-23 -.910E-23 -.476E-23   0.928E-17 -.957E-18 -.239E-17

 POSITION                                       TOTAL-FORCE (eV/Angst)
      0.00000     -0.00000      0.00000        -0.000000     -0.000000     -0.000000
      0.00000      2.16625      2.16625         0.000000      0.000000     -0.000000
      2.16625      0.00000      2.16625        -0.000000     -0.000000      0.000000
      2.16625      2.16625      0.00000         0.000000     -0.000000      0.000000
    total drift:                               -0.000000     -0.000000      0.000000

  FREE ENERGIE OF THE ION-ELECTRON SYSTEM (eV)
  free  energy   TOTEN  =        -7.63904783 eV

  energy  without entropy=       -7.63979870  energy(sigma->0) =       -7.63923555

 d Force = 0.0000000E+00[ 0.000E+00, 0.000E+00]  d Energy = 0.1535811E-03-0.154E-03
 d Force = 0.0000000E+00[ 0.000E+00, 0.000E+00]  d Ewald  =-0.6672110E-01 0.667E-01

 reached required accuracy - stopping structural energy minimisation