 vasp.5.3.3 18Dez12 (build Sep  7 2015 22:32:56) complex

 executed on             LinuxIFC date 2022.12.02  15:50:36

 INCAR:
 POTCAR:    PAW_PBE Fe 06Sep2000
 POTCAR:    PAW_PBE Fe 06Sep2000
   VRHFIN =Fe:  d7 s1

   TITEL  = PAW_PBE Fe 06Sep2000
   POMASS =   55.847; ZVAL   =    8.000    mass and valenz
   ENMAX  =  267.882; ENMIN  =  200.911 eV

  PAW_PBE Fe 06Sep2000                  :

 POSCAR: header
  positions in cartesian coordinates
 exchange correlation table for  LEXCH =        8
   RHO(1)=    0.500       N(1)  =     2000
   RHO(2)=  100.500       N(2)  =     4000

 ion  position               nearest neighbor table
   1  0.000  0.000  0.000-   2 2.44   2 2.44   2 2.44   4 2.44   3 2.82   3 2.82   3 2.82
   2  0.333  0.333  0.045-   3 2.44   3 2.44   1 2.44   1 2.44   1 2.44   5 2.44   3 2.44   4 2.82
                             4 2.82   4 2.82
   3  0.667  0.667  0.090-   2 2.44   2 2.44   4 2.44   4 2.44   6 2.44   2 2.44   4 2.44   1 2.82
                             5 2.82   1 2.82   5 2.82   1 2.82   5 2.82
   4  0.000  0.000  0.136-   3 2.44   3 2.44   5 2.44   5 2.44   5 2.44   1 2.44   3 2.44   6 2.82
                             2 2.82   2 2.82   6 2.82   6 2.82   2 2.82
   5  0.334  0.333  0.181-   6 2.44   4 2.44   4 2.44   6 2.44   6 2.44   4 2.44   2 2.44   3 2.82
                             3 2.82   3 2.82
   6  0.667  0.667  0.226-   5 2.44   5 2.44   5 2.44   3 2.44   4 2.82   4 2.82   4 2.82

  LATTYP: Found a hexagonal cell.
 ALAT       =     3.9865121710
 C/A-ratio  =     4.5152251462

  Lattice vectors:

 A1 = (   1.9932560900,  -3.4524208100,   0.0000000000)
 A2 = (  -3.9865121700,   0.0000000000,   0.0000000000)
 A3 = (   0.0000000000,   0.0000000000, -18.0000000000)

Analysis of symmetry for initial positions (statically):
 Subroutine PRICEL returns:
 Original cell was already a primitive cell.

 Routine SETGRP: Setting up the symmetry group for a
 hexagonal supercell.

 Subroutine GETGRP returns: Found  1 space group operations
 (whereof  1 operations were pure point group operations)
 out of a pool of 24 trial point group operations.

The static configuration has the point symmetry C_1 .

Analysis of symmetry for dynamics (positions and initial velocities):
 Subroutine PRICEL returns:
 Original cell was already a primitive cell.

[...]

The dynamic configuration has the point symmetry C_1 .

Analysis of constrained symmetry for selective dynamics:
 Subroutine PRICEL returns:
 Original cell was already a primitive cell.

 Routine SETGRP: Setting up the symmetry group for a
 hexagonal supercell.

 Subroutine GETGRP returns: Found  1 space group operations
 (whereof  1 operations were pure point group operations)
 out of a pool of 24 trial point group operations.

The constrained configuration has the point symmetry C_1 .

Analysis of magnetic symmetry:

 Subroutine MAGSYM returns: Found  1 space group operations
 (whereof  1 operations were pure point group operations)
 out of a pool of  1 trial space group operations
 (whereof  1 operations were pure point group operations)
 and found also     1 'primitive' translations

The magnetic configuration has the point symmetry C_1 .

 irot  :   1
 isymop:   1   0   0
           0   1   0
           0   0   1

 gtrans:     0.0000000     0.0000000     0.0000000

 ptrans:     0.0000000     0.0000000     0.0000000
 rotmap:
 (   1->   1)  (   2->   2)  (   3->   3)  (   4->   4)  (   5->   5)
 (   6->   6)

 KPOINTS: K-Points

Automatic generation of k-mesh.
Space group operators:
 irot       det(A)        alpha          n_x          n_y          n_z        tau_x        tau_y        tau_z
    1     1.000000     0.000000     1.000000     0.000000     0.000000     0.000000     0.000000     0.000000

 Subroutine IBZKPT returns following result:

 Found     41 irreducible k-points:

 Following reciprocal coordinates:
            Coordinates               Weight
  0.000000  0.000000  0.000000      1.000000
  0.111111  0.000000  0.000000      2.000000
  0.222222  0.000000  0.000000      2.000000
  0.333333  0.000000  0.000000      2.000000
  0.444444  0.000000  0.000000      2.000000
  0.000000  0.111111  0.000000      2.000000
  0.111111  0.111111  0.000000      2.000000
  0.222222  0.111111  0.000000      2.000000
  0.333333  0.111111  0.000000      2.000000
  0.444444  0.111111  0.000000      2.000000
 -0.444444  0.111111  0.000000      2.000000
 -0.333333  0.111111  0.000000      2.000000
 -0.222222  0.111111  0.000000      2.000000
 -0.111111  0.111111  0.000000      2.000000
  0.000000  0.222222  0.000000      2.000000
  0.111111  0.222222  0.000000      2.000000
  0.222222  0.222222  0.000000      2.000000
  0.333333  0.222222  0.000000      2.000000
  0.444444  0.222222  0.000000      2.000000
 -0.444444  0.222222  0.000000      2.000000
 -0.333333  0.222222  0.000000      2.000000
 -0.222222  0.222222  0.000000      2.000000
 -0.111111  0.222222  0.000000      2.000000
  0.000000  0.333333  0.000000      2.000000
  0.111111  0.333333  0.000000      2.000000
  0.222222  0.333333  0.000000      2.000000
  0.333333  0.333333  0.000000      2.000000
  0.444444  0.333333  0.000000      2.000000
 -0.444444  0.333333  0.000000      2.000000
 -0.333333  0.333333  0.000000      2.000000
 -0.222222  0.333333  0.000000      2.000000
 -0.111111  0.333333  0.000000      2.000000
  0.000000  0.444444  0.000000      2.000000
  0.111111  0.444444  0.000000      2.000000
  0.222222  0.444444  0.000000      2.000000
  0.333333  0.444444  0.000000      2.000000
  0.444444  0.444444  0.000000      2.000000
 -0.444444  0.444444  0.000000      2.000000
 -0.333333  0.444444  0.000000      2.000000
 -0.222222  0.444444  0.000000      2.000000
 -0.111111  0.444444  0.000000      2.000000

 Following cartesian coordinates:
            Coordinates               Weight
  0.000000  0.000000  0.000000      1.000000
  0.027872 -0.016092  0.000000      2.000000
  0.055744 -0.032184  0.000000      2.000000
  0.083615 -0.048275  0.000000      2.000000
  0.111487 -0.064367  0.000000      2.000000
  0.000000  0.032184  0.000000      2.000000
  0.027872  0.016092  0.000000      2.000000
  0.055744  0.000000  0.000000      2.000000
  0.083615 -0.016092  0.000000      2.000000
  0.111487 -0.032184  0.000000      2.000000
 -0.111487  0.096551  0.000000      2.000000
 -0.083615  0.080459  0.000000      2.000000
 -0.055744  0.064367  0.000000      2.000000
 -0.027872  0.048275  0.000000      2.000000
  0.000000  0.064367  0.000000      2.000000
  0.027872  0.048275  0.000000      2.000000
  0.055744  0.032184  0.000000      2.000000
  0.083615  0.016092  0.000000      2.000000
  0.111487  0.000000  0.000000      2.000000
 -0.111487  0.128734  0.000000      2.000000
 -0.083615  0.112642  0.000000      2.000000
 -0.055744  0.096551  0.000000      2.000000
 -0.027872  0.080459  0.000000      2.000000
  0.000000  0.096551  0.000000      2.000000
  0.027872  0.080459  0.000000      2.000000
  0.055744  0.064367  0.000000      2.000000
  0.083615  0.048275  0.000000      2.000000
  0.111487  0.032184  0.000000      2.000000
 -0.111487  0.160918  0.000000      2.000000
 -0.083615  0.144826  0.000000      2.000000
 -0.055744  0.128734  0.000000      2.000000
 -0.027872  0.112642  0.000000      2.000000
  0.000000  0.128734  0.000000      2.000000
  0.027872  0.112642  0.000000      2.000000
  0.055744  0.096551  0.000000      2.000000
  0.083615  0.080459  0.000000      2.000000
  0.111487  0.064367  0.000000      2.000000
 -0.111487  0.193101  0.000000      2.000000
 -0.083615  0.177009  0.000000      2.000000
 -0.055744  0.160918  0.000000      2.000000
 -0.027872  0.144826  0.000000      2.000000

 I would recommend the setting:
   dimension x,y,z NGX =    18 NGY =   18 NGZ =   82
 SYSTEM =  Crystal
 POSCAR =  header

 Startparameter for this run:
   NWRITE =      2    write-flag & timer
   PREC   = normal    normal or accurate (medium, high low for compatibility)
   ISTART =      0    job   : 0-new  1-cont  2-samecut
   ICHARG =      2    charge: 1-file 2-atom 10-const
   ISPIN  =      2    spin polarized calculation?
   LNONCOLLINEAR =      F non collinear calculations
   LSORBIT =      F    spin-orbit coupling
   INIWAV =      1    electr: 0-lowe 1-rand  2-diag
   LASPH  =      F    aspherical Exc in radial PAW
   METAGGA=      F    non-selfconsistent MetaGGA calc.

 Electronic Relaxation 1
   ENCUT  =  350.0 eV  25.72 Ry    5.07 a.u.   6.08  6.08 27.46*2*pi/ulx,y,z
   ENINI  =  350.0     initial cutoff
   ENAUG  =  511.4 eV  augmentation charge cutoff
   NELM   =     60;   NELMIN=  4; NELMDL=-10     # of ELM steps
   EDIFF  = 0.1E-04   stopping-criterion for ELM
   LREAL  =      F    real-space projection
   NLSPLINE    = F    spline interpolate recip. space projectors
   LCOMPAT=      F    compatible to vasp.4.4
   GGA_COMPAT  = T    GGA compatible to vasp.4.4-vasp.4.6
   LMAXPAW     = -100 max onsite density
   LMAXMIX     =    2 max onsite mixed and CHGCAR
   VOSKOWN=      0    Vosko Wilk Nusair interpolation
   ROPT   =    0.00000
 Ionic relaxation
   EDIFFG = -.1E-01   stopping-criterion for IOM
   NSW    =    300    number of steps for IOM
   NBLOCK =      1;   KBLOCK =    300    inner block; outer block
   IBRION =      2    ionic relax: 0-MD 1-quasi-New 2-CG
   NFREE  =      1    steps in history (QN), initial steepest desc. (CG)
   ISIF   =      2    stress and relaxation
   IWAVPR =     11    prediction:  0-non 1-charg 2-wave 3-comb
   ISYM   =      2    0-nonsym 1-usesym 2-fastsym
   LCORR  =      T    Harris-Foulkes like correction to forces

   POTIM  = 0.5000    time-step for ionic-motion
   TEIN   =    0.0    initial temperature
   TEBEG  =    0.0;   TEEND  =   0.0 temperature during run
   SMASS  =  -3.00    Nose mass-parameter (am)
   estimated Nose-frequenzy (Omega)   =  0.10E-29 period in steps =****** mass=  -0.363E-27a.u.
   SCALEE = 1.0000    scale energy and forces
   NPACO  =    256;   APACO  = 16.0  distance and # of slots for P.C.
   PSTRESS=    0.0 pullay stress

  Mass of Ions in am
   POMASS =  55.85
  Ionic Valenz
   ZVAL   =   8.00
  Atomic Wigner-Seitz radii
  virtual crystal weights
   VCA    =   1.00
   NELECT =      48.0000    total number of electrons
   NUPDOWN=      -1.0000    fix difference up-down

 DOS related values:
   EMIN   =  10.00;   EMAX   =-10.00  energy-range for DOS
   EFERMI =   0.00
   ISMEAR =     2;   SIGMA  =   0.10  broadening in eV -4-tet -1-fermi 0-gaus

 Electronic relaxation 2 (details)
   IALGO  =     68    algorithm
   LDIAG  =      T    sub-space diagonalisation (order eigenvalues)
   LSUBROT=      T    optimize rotation matrix (better conditioning)
   TURBO    =      0    0=normal 1=particle mesh
   IRESTART =      0    0=no restart 2=restart with 2 vectors
   NREBOOT  =      0    no. of reboots
   NMIN     =      0    reboot dimension
   EREF     =   0.00    reference energy to select bands
   IMIX   =      4    mixing-type and parameters
     AMIX     =   0.40;   BMIX     =  1.00
     AMIX_MAG =   1.60;   BMIX_MAG =  1.00
     AMIN     =   0.10
     WC   =   100.;   INIMIX=   1;  MIXPRE=   1;  MAXMIX= -45

 Intra band minimization:
[...]
 number of electron      47.9999970 magnetization      14.0100186
 augmentation part       25.1008528 magnetization      10.9584714

[...]

 eigenvalue-minimisations  :  2573
 total energy-change (2. order) : 0.4127062E-04  ( 0.4089806E-04)
 number of electron      47.9999970 magnetization      14.0125923
 augmentation part       25.1009511 magnetization      10.9603455

[...]

 average (electrostatic) potential at core
  the test charge radii are     1.0103
  (the norm of the test charge is              1.0000)
       1 -50.1756       2 -50.0938       3 -50.2916       4 -50.2927       5 -50.0947
       6 -50.1762

 E-fermi :  -0.9282     XC(G=0):  -4.8389     alpha+bet : -3.7541

 spin component 1

 k-point   1 :       0.0000    0.0000    0.0000
  band No.  band energies     occupation
      1      -8.4256      1.00000
      2      -5.9073      1.00000
      3      -5.4285      1.00000
      4      -5.4273      1.00000
      5      -4.4896      1.00000
      6      -4.4889      1.00000
      7      -4.2792      1.00000
      8      -4.2410      1.00000
      9      -4.0935      1.00000
     10      -4.0927      1.00000
     11      -3.8466      1.00000
     12      -3.8452      1.00000
     13      -3.6804      1.00000
     14      -3.5421      1.00000
     15      -3.5403      1.00000
     16      -3.4600      1.00000
     17      -3.4590      1.00000
     18      -3.1359      1.00000
     19      -2.5566      1.00000
     20      -2.5560      1.00000
     21      -2.4820      1.00000
     22      -2.3879      1.00000
     23      -2.3876      1.00000
     24      -2.1257      1.00000
     25      -2.1239      1.00000
     26      -1.9295      1.00000
     27      -1.9279      1.00000
     28      -1.9207      1.00000
     29      -1.6615      1.00000
     30      -1.6590      1.00000
     31      -1.2190      0.99955

[...]

 soft charge-density along one line, spin component           1
         0         1         2         3         4         5         6         7         8         9
 total charge-density along one line

[...]

------------------------ aborting loop because EDIFF is reached ----------------------------------------

  FORCE on cell =-STRESS in cart. coord.  units (eV):
  Direction    XX          YY          ZZ          XY          YZ          ZX
  Alpha Z   100.43331   100.43331   100.43331
  Ewald   10996.52173 10996.63727-13233.78408    -0.25822     0.09809    -0.18932
  Hartree 11838.29030 11838.36925-11385.64502    -0.10221     0.04473    -0.07617
  E(xc)    -236.29904  -236.29844  -236.34829     0.00084    -0.00220    -0.00016
  Local  -23203.27252-23203.44764 24252.73645     0.32698    -0.13798     0.25550
  n-local  -163.30866  -163.19552  -166.56117    -0.02924    -0.02053    -0.01585
  augment   231.36444   231.28427   230.79013     0.03197     0.01764     0.01355
  Kinetic   431.70913   431.70147   434.67406     0.01639     0.05644     0.03732
  Fock        0.00000     0.00000     0.00000     0.00000     0.00000     0.00000
  Total      -4.56130    -4.51602    -3.70460    -0.01349     0.05620     0.02486
  in kB     -29.49918   -29.20637   -23.95865    -0.08724     0.36345     0.16081

 VOLUME and BASIS-vectors are now :
  energy-cutoff  :      350.00
  volume of cell :      247.74
      direct lattice vectors                 reciprocal lattice vectors
     3.986512170  0.000000000  0.000000000     0.250845842 -0.144825914  0.000000000
     1.993256080  3.452420810  0.000000000     0.000000000  0.289651828  0.000000000
     0.000000000  0.000000000 18.000000000     0.000000000  0.000000000  0.055555556

[...]

 FORCES acting on ions
    electron-ion (+dipol)            ewald-force                    non-local-force                 convergence-correction
   -.681E-01 -.448E-02 0.134E+04   0.771E-01 0.323E-01 -.133E+04   -.965E-02 -.354E-01 -.792E+01   -.207E-03 -.213E-03 0.109E-01
   0.687E-01 0.153E+00 0.895E+03   -.691E-01 -.154E+00 -.893E+03   -.958E-02 -.954E-02 -.940E+00   0.282E-03 0.325E-03 0.256E-02
   -.594E-01 -.186E+00 0.337E+03   0.544E-01 0.174E+00 -.338E+03   0.529E-02 0.173E-01 0.986E-01   -.822E-04 0.201E-03 -.693E-02
   0.599E-01 0.168E+00 -.337E+03   -.544E-01 -.158E+00 0.338E+03   -.301E-02 -.191E-01 -.103E+00   0.622E-04 -.180E-03 -.152E-01
   -.659E-01 -.122E+00 -.895E+03   0.691E-01 0.126E+00 0.893E+03   0.413E-02 0.940E-02 0.935E+00   -.121E-03 -.449E-03 -.195E-01
   0.656E-01 -.704E-02 -.134E+04   -.771E-01 -.205E-01 0.133E+04   0.117E-01 0.358E-01 0.791E+01   0.184E-03 0.515E-03 -.179E-01
   0.884E-03 0.139E-02 0.603E-01   -.305E-13 0.330E-14 0.682E-12   -.113E-02 -.144E-02 -.141E-01   0.117E-03 0.199E-03 -.461E-01

 POSITION                                       TOTAL-FORCE (eV/Angst)
      0.00000      0.00000      0.00000        -0.000811     -0.007733      0.694081
      1.99400      1.15130      0.81410        -0.009650     -0.009871      0.385296
      3.98726      2.30112      1.62810         0.000219      0.005341     -0.306204
      0.00159      0.00000      2.44220         0.002540     -0.009669      0.305759
      1.99484      1.14992      3.25630         0.007306      0.013197     -0.382796
      3.98884      2.30112      4.07030         0.000396      0.008734     -0.696136
    total drift:                               -0.000127      0.000156      0.000110

  FREE ENERGIE OF THE ION-ELECTRON SYSTEM (eV)
  free  energy   TOTEN  =       -44.40619774 eV

  energy  without entropy=      -44.40897780  energy(sigma->0) =      -44.40689275

[...]

 eigenvalue-minimisations  :  3258
 total energy-change (2. order) :-0.3625583E-05  ( 0.7578132E-05)
 number of electron      48.0000007 magnetization      14.0149883
 augmentation part       25.0955972 magnetization      10.9656987

[...]

 d Force = 0.3616472E-01[ 0.328E-01, 0.395E-01]  d Energy = 0.3562396E-01 0.541E-03
 d Force =-0.5092198E+02[-0.507E+02,-0.511E+02]  d Ewald  =-0.5092343E+02 0.146E-02

 Steepest descent step on ions:
 trial-energy change:   -0.035624  1 .order   -0.036165   -0.039502   -0.032827
  (g-gl).g = 0.395E-01      g.g   = 0.395E-01  gl.gl    = 0.000E+00
 g(Force)  = 0.395E-01   g(Stress)= 0.000E+00 ortho     = 0.000E+00
 gamma     =   0.00000
 trial     =   1.00000
 opt step  =   4.00000  (harmonic =   5.91816) maximal distance =0.05900258
 next E    =   -44.523087   (d E  =  -0.11689)

[...]

 d Force =-0.6990612E-01[-0.217E+00, 0.767E-01]  d Energy =-0.3950679E-01-0.304E-01
 d Force =-0.2886862E+03[-0.280E+03,-0.297E+03]  d Ewald  =-0.2890749E+03 0.389E+00

[...]

 d Force = 0.6324475E-01[-0.334E-01, 0.160E+00]  d Energy = 0.5749323E-01 0.575E-02
 d Force = 0.2116407E+03[ 0.217E+03, 0.207E+03]  d Ewald  = 0.2118002E+03-0.160E+00

[...]

 d Force =-0.1445450E-02[-0.169E-01, 0.141E-01]  d Energy =-0.7525575E-03-0.693E-03
 d Force =-0.9032593E+02[-0.895E+02,-0.911E+02]  d Ewald  =-0.9033748E+02 0.115E-01

[...]

 Conjugate gradient step on ions:
 trial-energy change:   -0.031276  1 .order   -0.031413   -0.043026   -0.019800
  (g-gl).g = 0.197E-01      g.g   = 0.203E-01  gl.gl    = 0.395E-01
 g(Force)  = 0.203E-01   g(Stress)= 0.000E+00 ortho     = 0.651E-03
 gamma     =   0.49823
 trial     =   2.08303
 opt step  =   3.98818  (harmonic =   3.85873) maximal distance =0.00466880
 next E    =   -44.572894   (d E  =  -0.04023)

[...]

 d Force = 0.5786868E-04[ 0.487E-05, 0.111E-03]  d Energy = 0.5818216E-02-0.576E-02
 d Force =-0.4069854E+01[-0.407E+01,-0.407E+01]  d Ewald  =-0.4069855E+01 0.313E-06

[...]

 d Force = 0.2765184E-03[-0.832E-03, 0.138E-02]  d Energy = 0.3361153E-04 0.243E-03
 d Force =-0.1545277E+02[-0.155E+02,-0.154E+02]  d Ewald  =-0.1545274E+02-0.280E-04

[...]

 d Force = 0.2348081E-06[ 0.329E-06, 0.141E-06]  d Energy = 0.9081019E-02-0.908E-02
 d Force = 0.1180089E+00[ 0.118E+00, 0.118E+00]  d Ewald  = 0.1180089E+00 0.382E-10

[...]

 d Force =-0.5777305E-05[-0.152E-04, 0.369E-05]  d Energy = 0.1175334E-04-0.175E-04
 d Force = 0.1323536E+01[ 0.132E+01, 0.132E+01]  d Ewald  = 0.1323536E+01 0.178E-07

[...]

 Conjugate gradient step on ions:
 trial-energy change:   -0.000082  1 .order   -0.000064   -0.000153    0.000026
  (g-gl).g = 0.696E-04      g.g   = 0.601E-04  gl.gl    = 0.490E-03
 g(Force)  = 0.601E-04   g(Stress)= 0.000E+00 ortho     =-0.893E-05
 gamma     =   0.14215
 trial     =   2.60308
 opt step  =   2.22888  (harmonic =   2.22888) maximal distance =0.00269618
 next E    =   -44.599413   (d E  =  -0.00007)

[...]

 d Force = 0.1340108E-05[-0.102E-05, 0.370E-05]  d Energy = 0.9872439E-05-0.853E-05
 d Force =-0.1431673E+00[-0.143E+00,-0.143E+00]  d Ewald  =-0.1431673E+00-0.145E-08

[...]

 d Force = 0.2919635E-04[ 0.295E-05, 0.554E-04]  d Energy =-0.8247627E-05 0.374E-04
 d Force = 0.2671937E+01[ 0.267E+01, 0.267E+01]  d Ewald  = 0.2671937E+01 0.243E-07

 Conjugate gradient step on ions:
 trial-energy change:    0.000008  1 .order   -0.000029   -0.000055   -0.000003
  (g-gl).g = 0.853E-05      g.g   = 0.215E-04  gl.gl    = 0.601E-04
 g(Force)  = 0.215E-04   g(Stress)= 0.000E+00 ortho     = 0.272E-05
 gamma     =   0.14200
 trial     =   2.52824
 opt step  =   2.67019  (harmonic =   2.67019) maximal distance =0.00181130
 next E    =   -44.599469   (d E  =  -0.00003)

[...]

 d Force = 0.3243322E-06[-0.191E-06, 0.839E-06]  d Energy = 0.7259109E-05-0.693E-05
 d Force = 0.2999808E+00[ 0.300E+00, 0.300E+00]  d Ewald  = 0.2999808E+00 0.109E-10

 FEWALD executed in parallel

[...]

 eigenvalue-minimisations  :  3307
 total energy-change (2. order) : 0.1307049E-04  (-0.3008522E-05)
 number of electron      47.9999988 magnetization      13.9896114
 augmentation part       25.0732922 magnetization      11.0319031

 Broyden mixing:
  rms(total) = 0.14952E-02    rms(broyden)= 0.14945E-02
  rms(prec ) = 0.17158E-02
  weight for this iteration     100.00

 eigenvalues of (default mixing * dielectric matrix)
  average eigenvalue GAMMA=   0.4500
  0.7791  0.6608  0.1627  0.1976

[...]

----------------------------------------- Iteration   24(   6)  ---------------------------------------

 eigenvalue-minimisations  :  2585
 total energy-change (2. order) :-0.4760393E-05  (-0.1288181E-05)
 number of electron      47.9999988 magnetization      13.9896114
 augmentation part       25.0732922 magnetization      11.0319031

 Free energy of the ion-electron system (eV)
  alpha Z        PSCENC =       100.43331480
  Ewald energy   TEWEN  =      9194.61839417
  -1/2 Hartree   DENC   =    -12718.45742334
  -exchange  EXHF       =         0.00000000
  -V(xc)+E(xc)   XCENC  =        24.47022561
  PAW double counting   =      4187.39313159    -4241.25681868
  entropy T*S    EENTRO =         0.00157325
  eigenvalues    EBANDS =      -157.57078920
  atomic energy  EATOM  =      3565.76896863
  free energy    TOTEN  =       -44.59942317 eV

  energy without entropy =      -44.60099642  energy(sigma->0) =      -44.59981648

 average (electrostatic) potential at core
  the test charge radii are     1.0103
  (the norm of the test charge is              1.0000)
       1 -50.3773       2 -50.1528       3 -50.3725       4 -50.4005       5 -50.1494
       6 -50.2929

 E-fermi :  -1.0860     XC(G=0):  -4.7289     alpha+bet : -3.7541

[...]

 spin component 2

[...]

 k-point  41 :      -0.1111    0.4444    0.0000
  band No.  band energies     occupation
      1      -5.6121      1.00000
      2      -5.4829      1.00000
      3      -4.3127      1.00000
      4      -4.1194      1.00000
      5      -3.4955      1.00000
      6      -2.9591      1.00000
      7      -2.9049      1.00000
      8      -2.7206      1.00000
      9      -2.6112      1.00000
     10      -2.4017      1.00000
     11      -2.2967      1.00000
     12      -2.2536      1.00000
     13      -2.0596      1.00000
     14      -1.7921      1.00000
     15      -1.6025      1.00000
     16      -1.2099      1.03414
     17      -1.0845      0.48417
     18      -0.9135      0.00085
     19      -0.7399      0.00003
     20      -0.6261      0.00000
     21      -0.2932      0.00000
     22       0.0169      0.00000
     23       0.1312      0.00000
     24       0.1737      0.00000
     25       0.2573      0.00000
     26       0.3841      0.00000
     27       0.4971      0.00000
     28       0.6376      0.00000
     29       0.7270      0.00000
     30       0.9088      0.00000
     31       0.9470      0.00000

[...]

 soft charge-density along one line, spin component           2
         0         1         2         3         4         5         6         7         8         9
 total charge-density along one line

------------------------ aborting loop because EDIFF is reached ----------------------------------------

  FORCE on cell =-STRESS in cart. coord.  units (eV):
  Direction    XX          YY          ZZ          XY          YZ          ZX
  Alpha Z   100.43331   100.43331   100.43331
  Ewald   11478.93801 11479.35401-13763.67561    -0.21438    -0.32955    -0.25539
  Hartree 12288.47464 12288.59336-11858.39617    -0.07671    -0.15422    -0.11080
  E(xc)    -237.14836  -237.15027  -237.49801     0.00094     0.00101     0.00075
  Local  -24135.90510-24136.37007 25253.85504     0.26591     0.48233     0.35542
  n-local  -160.72887  -160.70158  -164.63149    -0.00446    -0.00476    -0.00947
  augment   230.90243   230.87165   231.15352     0.01084    -0.00513     0.00457
  Kinetic   433.52985   433.51001   438.30647     0.01811     0.00065     0.00747
  Fock        0.00000     0.00000     0.00000     0.00000     0.00000     0.00000
  Total      -1.50409    -1.45958    -0.45294     0.00023    -0.00967    -0.00745
  in kB      -9.72735    -9.43951    -2.92928     0.00151    -0.06252    -0.04820

 VOLUME and BASIS-vectors are now :
  energy-cutoff  :      350.00
  volume of cell :      247.74
      direct lattice vectors                 reciprocal lattice vectors
     3.986512170  0.000000000  0.000000000     0.250845842 -0.144825914  0.000000000
     1.993256080  3.452420810  0.000000000     0.000000000  0.289651828  0.000000000
     0.000000000  0.000000000 18.000000000     0.000000000  0.000000000  0.055555556

  length of vectors
     3.986512170  3.986512166 18.000000000     0.289651828  0.289651828  0.055555556

 FORCES acting on ions
    electron-ion (+dipol)            ewald-force                    non-local-force                 convergence-correction
   -.125E+00 -.145E+00 0.134E+04   0.125E+00 0.147E+00 -.133E+04   0.148E-02 -.168E-02 -.777E+01   -.347E-04 0.180E-04 -.409E-02
   -.121E-01 -.132E+00 0.877E+03   0.125E-01 0.135E+00 -.877E+03   0.148E-02 0.173E-02 -.184E+00   -.131E-03 0.139E-03 0.166E-01
   0.140E+00 0.381E+00 0.439E+03   -.141E+00 -.388E+00 -.439E+03   0.274E-02 0.538E-02 0.579E+00   -.220E-02 -.761E-03 0.653E-01
   -.525E-01 -.267E+00 -.419E+03   0.547E-01 0.275E+00 0.420E+03   0.409E-03 -.403E-02 -.511E+00   -.331E-02 -.235E-02 0.886E-01
   -.101E-01 0.111E+00 -.915E+03   0.122E-01 -.111E+00 0.915E+03   0.136E-02 0.280E-02 0.214E+00   -.535E-02 -.953E-02 0.810E-01
   0.642E-01 0.579E-01 -.132E+04   -.628E-01 -.577E-01 0.132E+04   0.245E-02 0.701E-02 0.721E+01   -.471E-02 -.645E-02 0.764E-01
   0.476E-02 0.642E-02 0.146E+00   -.306E-13 0.329E-14 0.227E-12   0.992E-02 0.112E-01 -.466E+00   -.157E-01 -.189E-01 0.324E+00

 POSITION                                       TOTAL-FORCE (eV/Angst)
      0.00000      0.00000      0.00000         0.001458      0.000519      0.379546
      1.99400      1.15130      0.81410         0.001994      0.005831     -0.385931
      3.98799      2.30375      1.40815        -0.000633     -0.002529      0.002986
      0.00203      0.00167      2.43804        -0.000539      0.001169      0.004605
      1.99570      1.15369      3.10029        -0.001626     -0.005980     -0.000206
      3.98931      2.30444      3.78466        -0.000654      0.000990     -0.001000
    total drift:                               -0.001057     -0.001311      0.003895

  FREE ENERGIE OF THE ION-ELECTRON SYSTEM (eV)
  free  energy   TOTEN  =       -44.59942317 eV

  energy  without entropy=      -44.60099642  energy(sigma->0) =      -44.59981648

 d Force = 0.2057058E-04[ 0.993E-05, 0.312E-04]  d Energy =-0.1530706E-05 0.221E-04
 d Force = 0.3165292E+01[ 0.317E+01, 0.317E+01]  d Ewald  = 0.3165292E+01-0.464E-07

 Conjugate gradient step on ions:
 trial-energy change:    0.000002  1 .order   -0.000021   -0.000031   -0.000010
  (g-gl).g = 0.168E-04      g.g   = 0.146E-04  gl.gl    = 0.215E-04
 g(Force)  = 0.146E-04   g(Stress)= 0.000E+00 ortho     =-0.672E-06
 gamma     =   0.77840
 trial     =   2.21973
 opt step  =   3.25526  (harmonic =   3.25526) maximal distance =0.00269401
 next E    =   -44.599448   (d E  =  -0.00002)

 reached required accuracy - stopping structural energy minimisation